 # Version information for this restart file 
 # current date 2023-11-30 18:46:38.026
 # current working dir /home/hv454/comp-lab-class-2023/Week12/Runs/Proton
 # Program compiled at                              Sat Dec 12 18:27:15 EST 2020
 # Program compiled on                                         cs001.nyu.cluster
 # Program compiled for                                                nyu-intel
 # Source code revision number                                       git:8c64c6e
 &GLOBAL
   PRINT_LEVEL  LOW
   PROJECT_NAME proton_aimd_1ns_every0.5fs
   RUN_TYPE  MD
   WALLTIME 21600
 &END GLOBAL
 &MOTION
   &GEO_OPT
     OPTIMIZER  BFGS
     MAX_ITER  100
     MAX_DR     3.0000000000000001E-03
     &BFGS
     &END BFGS
   &END GEO_OPT
   &MD
     ENSEMBLE  NVT
     STEPS  2000
     TIMESTEP     4.9999999999999994E-01
     STEP_START_VAL  1500
     TIME_START_VAL     7.5000000000000762E+02
     ECONS_START_VAL    -1.1180339613148931E+03
     TEMPERATURE     3.0000000000000000E+02
     &THERMOSTAT
       TYPE  GLE
       REGION  MASSIVE
       &GLE
         NDIM  5
         A_SCALE     1.0000000000000000E+00
         A_LIST     1.8595758612559999E+02    2.7263853498399998E-01    1.1526100454610001E+01   -3.6414578262600003E+01 \
             2.3173375816020001E+02
         A_LIST    -2.7809524712060002E-01    8.5951591808710006E-05    7.2189048017650004E-01   -1.9844539343859999E-01 \
             4.2409257583420001E-01
         A_LIST    -1.4825808131210000E+01   -7.2189048017650004E-01    1.3590902121280000E+00    5.1498896280349999E+00 \
            -9.9949268450990001E+00
         A_LIST    -1.0372189126880000E+01    1.9844539343859999E-01   -5.1498896280349999E+00    2.6661910891169999E+01 \
             1.1507715495310000E+01
         A_LIST     2.1801346360420001E+02   -4.2409257583420001E-01    9.9949268450990001E+00   -1.1507715495310000E+01 \
             3.0958394565589998E+02
         &THERMOSTAT_ENERGY
               1.1041584143191570E-02
               2.1666368737860756E-03
               1.7071408778091181E-02
               2.4700418302763308E-03
              -4.5534594904873653E-03
               4.9205483475327104E-03
               3.6581436695167233E-03
               6.5357341077360740E-03
              -1.5126529348838081E-03
              -3.0000627930311897E-03
              -3.3199107444355325E-03
               2.2235509791957986E-03
              -2.3750371009589300E-03
              -1.3636970875133093E-02
               2.5884230527325890E-03
               7.1880280141084834E-03
              -2.3631495873192351E-03
              -3.6037411474924806E-03
               7.8259845383735031E-03
               1.1327282813790343E-02
              -2.7664079584781261E-03
              -2.9776642983928960E-03
              -2.6915686682034130E-04
              -2.7264952445033071E-03
               5.0590686282769338E-03
               4.7508279950552872E-04
              -1.0045426066499115E-02
               6.8717473940992707E-03
              -6.5476872434252608E-04
               1.0191493879168552E-02
               6.3008022865331534E-03
              -5.6505287697696206E-03
               3.7486984885851888E-03
               7.2506375535962217E-03
               1.3865083900300220E-04
              -2.0136211166838810E-03
              -3.4468254835617316E-03
              -6.5931784586481601E-03
               6.4755549722576248E-03
               8.4004555846029765E-03
               2.5234507316541843E-03
               4.3092594587687393E-03
              -8.5603706493570138E-03
               5.8313273306326166E-03
               5.4786521078697633E-05
              -1.5185735906974272E-02
               3.5461835348892102E-03
              -2.0517772044638073E-03
              -3.8376711991245233E-03
               8.1465885499228813E-07
              -5.1061717372449548E-03
               1.1197133479555024E-04
               3.7422810499862231E-03
              -6.9278413693219833E-03
              -5.8971079019143266E-03
              -1.1372691572536432E-02
              -5.1712657299049980E-03
               3.5542492540042710E-04
              -5.1353556787864024E-04
              -4.7378107236358989E-03
              -7.8764005210889380E-03
               3.0636450482839504E-03
               1.4190719577101238E-02
               6.9242337989987744E-03
               1.1284786495040274E-02
              -1.2152093098756500E-02
              -3.6630260566073787E-03
               2.3508150918535357E-03
              -5.7168083956831079E-04
               2.0673209425159391E-03
               2.9761838446791052E-03
              -1.6920264698562319E-03
               5.0836203595113308E-05
               1.6412368285214428E-03
               2.9839198896481900E-03
              -3.5734184972161997E-03
               4.4505242491187265E-03
              -2.2108507736755059E-03
               6.9971623450863123E-03
              -3.1751799824614180E-03
              -2.1707031862538962E-05
               1.2465818530192389E-03
              -3.0115080090395594E-03
               7.8051530008035018E-03
              -6.8885102828139047E-03
               8.4841825210957831E-04
               1.0132889952383258E-02
              -8.4947791824452369E-03
               8.4995614272694519E-04
              -6.1680529307248334E-03
               7.0076162171406765E-04
               2.2975289065945592E-04
              -3.3951259073887294E-03
               2.8511291584358933E-03
               9.6283279988477570E-03
               9.0956248846434089E-03
              -6.9539388365589747E-03
               5.9655984063013597E-03
              -1.1658880051165226E-03
              -8.9909527075389005E-04
              -7.8682008562577094E-03
              -7.7932411890745210E-03
               6.0338878731507391E-03
              -9.9699538988293649E-05
              -3.4226808327658450E-03
               1.0955359109240344E-02
               2.2559617251813241E-02
               3.0316552614559952E-03
               6.7312080405953411E-03
               2.7085442854092201E-02
               3.4625569379474974E-02
               6.7337025527437365E-03
              -3.3388689136953152E-03
               5.7169251960366885E-05
               7.1228516176465462E-03
               1.3653635227286564E-03
              -3.1655041042301744E-03
               9.6827937801167354E-03
              -1.5399666610208659E-03
               7.2007634028643562E-03
               3.1242637398875926E-03
               4.8688873519749630E-04
               6.5666693009619210E-03
              -3.7544114506352592E-03
               1.5097038167145664E-02
              -1.1157303795250883E-02
               2.6512138759842339E-03
              -1.8311350639640283E-04
              -1.3218152214272342E-02
              -6.1864178008883735E-03
               5.9582016862708203E-03
               1.4181142716975905E-03
               5.2191866489344485E-03
              -1.2762258885814287E-03
              -7.4923645450327998E-03
               2.0994607229959917E-03
              -1.6552253300631248E-02
               8.3453151087992776E-03
              -1.2213454429495726E-03
               4.8683420152172948E-03
              -1.6214005641582401E-03
               1.1470270696804428E-02
               1.7692749948611062E-03
              -1.2153525872947681E-02
               3.6455063413890726E-03
              -6.8454108855907081E-03
               2.3999336344936047E-03
               1.6828719131693434E-03
              -4.3302677175572233E-03
               3.9245852564977826E-03
              -5.2251784298389392E-03
               1.0200097036679335E-03
               7.7615093905363067E-05
              -9.2759870653447568E-03
               1.1822074699668939E-02
              -8.3803329377609879E-04
              -7.3934591549208841E-03
              -2.3694159400121689E-03
               4.8432415139651724E-03
               1.1420486158637694E-02
              -1.9185129479612620E-03
              -5.2748010087134986E-03
              -9.4917009113835733E-03
               8.7956255167282189E-03
               4.1218967921525058E-03
               3.9709198497493168E-03
               5.2565188212213730E-04
              -1.6653052110336157E-03
              -1.0147217758257481E-02
               2.6766398734507800E-04
               4.6223054498939020E-04
               3.6060841646352922E-03
               1.6018871022184321E-02
              -4.3414743881517040E-03
               6.0464892607741208E-04
              -7.1293716715207383E-04
               2.4794169221114704E-03
              -5.1866993950242107E-03
              -9.8017702302469010E-03
              -1.1018391334729858E-03
              -3.6220834574255176E-04
               9.0300796156040711E-03
              -9.3346715890496362E-04
              -4.4953537713242082E-03
               3.1469600468355089E-03
               4.3770076749889983E-03
               7.6704739404355729E-03
               5.1527347629357016E-03
              -1.0734328524952166E-02
               5.5741827645754121E-03
              -4.8387101229020379E-03
               2.0140866969154286E-03
              -2.7850969875681253E-03
              -1.7317580752446381E-03
               2.4585751358517298E-03
               3.1330196824995672E-03
              -7.7573242431015071E-03
               2.2740023605523105E-03
               2.0855785848643093E-06
              -5.5930608737590230E-03
               2.1137661985137332E-03
              -2.6263689129065950E-03
              -2.6359493443759222E-03
              -6.4892762171463907E-04
              -1.1089212936025313E-03
              -1.0367067848530760E-02
               1.2204339898355065E-03
               6.2439973451004261E-04
              -9.3762019933099593E-03
               1.9111158472849409E-02
              -5.1037640764280542E-03
               3.4101067407880494E-03
               4.2920129317776719E-03
               5.0681781782555245E-03
              -9.0593081855180682E-03
               1.7313264297078505E-03
              -1.1116127282953504E-02
               1.5319964087668626E-02
               2.1788265323768657E-03
               2.6852919771522942E-03
              -2.0145992512838025E-03
               3.0953941047637602E-03
              -5.3438073119650258E-03
              -5.4864490958578711E-03
               2.8128664270395337E-03
              -5.4968333316404543E-03
               2.3375746566688276E-03
               1.4364246090638003E-02
              -1.9051252872896496E-04
               1.2472652303031771E-02
              -4.5809032295619162E-03
               4.1476533309376170E-03
               2.5105433639943369E-03
               4.4488882786234999E-03
              -1.0080808721764428E-03
              -6.9706701071020347E-03
               1.3932009570121328E-03
              -1.1927821783264227E-03
               2.0374735167376875E-03
               1.1807031300092596E-03
               2.7075514662903894E-03
               3.2300299326500936E-03
              -1.3206706084921596E-03
              -6.9556673301376624E-03
               2.1539102230004525E-03
              -2.8031882139721697E-03
              -6.6179870242051597E-04
               4.6135251415084259E-03
              -5.1817165615865943E-03
              -5.8717934718250228E-03
               1.0812048715206999E-02
              -2.2018031467832401E-03
              -1.7570619294494418E-04
              -7.4113925512976518E-03
               6.7838163881972563E-03
              -6.4932071424900701E-03
              -1.8909400760983072E-03
               1.8893164449964254E-03
              -4.7448360678313730E-03
              -7.7083601172253787E-04
               1.4176436785998751E-02
               2.1096138277330264E-03
               4.1855944326580890E-03
              -1.4312261957133562E-03
               4.9758191170450718E-03
               4.4022154191242962E-03
               1.1165619257788605E-02
               2.2956269946604602E-03
               8.5544622489440100E-03
              -2.9664255766022243E-03
               8.2452029123472788E-05
              -9.1799886205535062E-03
               6.1261487533844222E-03
               2.5513788257236459E-04
               4.8007838326324451E-03
              -4.7861864668511138E-03
              -1.5034703620992776E-02
               1.0429466502798548E-02
               6.0813914142916646E-03
               1.3235538162164710E-02
              -1.4295100327279885E-02
              -2.0416136876541054E-03
               1.0249960638660550E-02
              -2.6556415277168006E-03
               3.5922309297878332E-03
              -5.3059160388476169E-03
              -3.5141538468016886E-03
              -9.7675251917170580E-03
              -2.0323454687624559E-02
               3.7404302887414738E-03
               1.5725904654139065E-02
              -2.1071080231442260E-03
              -6.2464740365350373E-04
              -6.0208661983654297E-03
              -1.3747841331042159E-02
               1.3033060228763594E-02
              -4.4688068076652199E-03
               7.7363651717616755E-03
               6.9070862875793169E-03
              -1.2326529145717599E-02
              -2.0495123186968726E-03
               1.1735760318354575E-02
               9.2455296568871963E-03
               4.2218562757834928E-03
               7.2378506453896286E-03
              -1.0739245434151182E-02
              -7.8136817544863686E-03
               6.0482463445972554E-03
               1.0962930715168184E-02
               1.1772060639160511E-03
              -7.5311022234759225E-05
              -1.5762269079134970E-03
               4.2682613936768704E-03
               9.3913126527675722E-04
               6.8704036188948344E-03
              -8.9682881727329699E-03
              -1.9526650131333383E-03
               3.0487585845682184E-03
              -1.2976181225220689E-02
              -4.3845957654371137E-03
               3.3696518130388515E-04
              -4.2652432845877268E-03
               1.1417240726995187E-03
               3.6800636794902366E-03
              -6.4725290866258119E-03
               1.5779827700924325E-02
              -4.9980377508646804E-04
              -4.2849789139400921E-03
              -4.5511198574684723E-05
              -1.5628953356626912E-04
              -4.7359643790037464E-03
               5.8484141290120091E-03
               1.1551366534996001E-02
              -2.1191305017261687E-03
               3.4860986651546392E-03
              -3.9603218472661662E-03
               4.0058705429318045E-03
               4.9678207185023587E-03
               2.2594605583676638E-03
              -7.3726942940458050E-04
              -6.5164191978580172E-03
              -1.6342909871765439E-03
               3.8271967104361866E-03
               7.6974368064915378E-03
               8.1039579922615838E-03
               6.5667685238059636E-03
               2.4301584940903662E-03
              -6.8509973350535294E-03
               1.0497056718768829E-02
              -2.9374464100823975E-03
              -7.7709888582054498E-03
              -1.2867180510243618E-04
              -7.3079755781054676E-03
               2.6529192798603113E-03
               2.2896150827848689E-03
              -2.7353662481615117E-03
              -1.8281826357464238E-03
              -3.9468637812791084E-03
               6.5540969915716231E-04
              -9.3809403404795271E-04
              -3.8335808987724537E-03
               1.4719504442425473E-03
               9.2501324147189860E-03
               5.2875011530669125E-03
              -1.3826693493230165E-03
               6.0292241471360383E-03
               2.0484536571181086E-02
              -3.8666985810216006E-03
              -2.1402545037367719E-02
              -1.0234792619277724E-02
               2.9971310296382581E-03
               1.0808507582206188E-04
               1.9183781430712832E-03
               1.0696899868848279E-04
               3.7861215757727779E-04
               3.2981583871467038E-03
              -1.0279235280974219E-02
              -7.2987635286705793E-03
              -2.8099536049763000E-03
               2.6290980328412365E-03
               7.9783126970867646E-03
               1.1339615657285730E-02
               4.2141716934174261E-05
               2.4596121154067101E-03
              -1.2052442269976841E-02
              -6.1943670123872823E-03
               1.1042583768248111E-02
               3.4915859239720275E-03
               1.6959897778497995E-03
               6.6205634650711885E-04
              -3.3292860958014057E-03
               5.1905260330134834E-03
               3.4498286708124458E-03
              -3.6328387578525201E-03
               5.1408082023441243E-03
               2.5790749058899813E-03
              -6.1319509687183138E-04
              -2.1405933356099935E-03
              -1.2947264625156308E-03
              -2.2229986966699204E-03
              -7.2956185327599111E-03
               1.8092362542152665E-03
              -9.4412945287234915E-03
              -4.4993579777743535E-03
              -5.9411710814518612E-03
              -8.5641867858173275E-03
               8.3530901601307425E-03
              -8.8277191746304398E-03
              -4.0225258508985841E-03
               5.2029661703201857E-03
              -4.2463430553890411E-03
              -8.7565798879763563E-04
               3.3734225067331590E-03
              -5.4937564527377265E-03
              -8.8681844602708304E-04
               9.7475779464885441E-03
              -5.4817700278325023E-03
              -8.0308816418427266E-05
               6.5988950607128360E-04
               2.3630017780285526E-03
               5.1570604259664251E-03
               4.6602825131729295E-03
              -2.8536901264437230E-03
               1.7984000939019844E-03
               3.3315072968757025E-03
              -4.5854337666136813E-03
               3.7028221548574699E-03
              -1.4704820246391891E-03
               6.7361390813857420E-04
              -1.0552958983466574E-04
              -4.0446711234558294E-03
              -6.5524812989725349E-03
              -1.1131876308885052E-02
               4.3538641288720986E-03
               1.1049370501871544E-02
               2.5316169424311613E-03
              -3.6884172876172684E-03
               4.2636865860247041E-04
               2.4636936225937781E-03
               2.3165869274128113E-03
               4.4899232750443292E-03
               4.9626744089373079E-03
               1.2286594665126306E-03
               1.3727804597978334E-03
               3.4745127738704186E-04
               3.6871208160301019E-03
               6.0155703347425709E-03
               1.2417445310295669E-02
               6.1788019883441438E-03
              -1.3326158218177944E-02
              -9.1312724222247332E-04
              -3.5005079712462123E-03
               3.6448741989435541E-03
               1.2386481253116900E-03
               8.4016445110736328E-03
              -3.5770914129195554E-03
              -5.5360974375929977E-03
              -6.8957809479716923E-03
              -1.1982546423059431E-02
              -6.9319911361283293E-04
               1.6686696715398183E-02
               4.9105622687572884E-03
              -2.4552901455419146E-03
               5.0218525982646195E-03
               4.1338130663859636E-03
               9.7236460415744247E-04
              -6.2545412787718786E-03
              -5.2658476918632095E-04
               4.5086776227787036E-03
              -4.2399206906574265E-03
               1.0938885212257807E-03
               8.0564074404634617E-04
               4.6118769071454143E-03
              -1.0784123283506877E-03
              -1.7601595478389047E-05
               1.0343232138829537E-02
               1.9823066277736127E-03
              -6.8256502355587567E-05
              -1.4905544692524310E-03
               2.2631175983485320E-03
              -1.6958599011189211E-03
              -3.1954910720184619E-03
               3.2368786417319852E-03
               6.3725389667441436E-03
               3.7609904842371021E-04
              -1.2353776486284916E-03
              -6.7425195056840838E-03
               6.3723751632472128E-04
               2.2774379598660007E-03
              -3.3278935436005562E-03
               2.1919332686272815E-03
               2.7107624846596768E-03
               1.3723536374694116E-02
              -8.7821197007078265E-03
              -9.7622333770216660E-03
              -1.1108512922225066E-02
               2.6058868206318834E-04
               2.6782995995502275E-03
               5.2775523080662605E-03
              -2.3868925170349186E-04
               3.5694909340547977E-03
              -3.3505084841025223E-03
              -1.1781753222704146E-02
               1.2917405185273650E-02
               3.9588814968517429E-03
              -3.2960002635858887E-03
              -8.4820436531735481E-03
               9.8098606768835914E-04
               5.0096264073883883E-03
               3.4530592411045275E-03
              -1.3951081074158735E-02
               3.4764876572469490E-03
               9.2168411125051106E-05
              -9.5099223881994575E-03
               1.6334097865234515E-02
              -1.5756569176847354E-02
              -8.5732196684009578E-03
               4.8570730856830665E-03
               5.1488387623678574E-03
              -1.0106796668574766E-05
              -7.2787795585990151E-03
               5.0249412416006507E-03
               5.0658009483544007E-03
               3.7801610170308910E-04
               3.6035422321039467E-03
               7.0541503145810059E-04
              -8.4822108635291289E-03
              -5.5959012194294695E-04
               2.6584708121028366E-04
               2.5717435294322745E-03
               9.4404846897185798E-03
               4.5944546506010474E-03
              -5.4597291703210168E-03
              -6.6353259527515574E-03
              -2.4969993867162699E-03
               9.3931340367108982E-04
               7.5579641143036537E-03
               2.6830638145309907E-03
              -4.8393100413828194E-03
               7.5164057437634669E-03
               5.5130123738304591E-03
              -3.5707021909006141E-03
              -6.8291793994095093E-04
               1.7015661653027741E-03
               8.2681007675847566E-03
              -1.9096372531531599E-03
               2.2560952836800153E-03
               1.3011816734609294E-03
               4.1860154267570815E-03
               1.1434705925392103E-02
               5.4956752543323668E-04
              -1.4145321892251790E-02
              -9.8729543814729168E-04
              -1.8575375518541971E-03
               2.3637820580180158E-03
              -4.9987753046513810E-03
               4.1131550076434374E-03
               2.6116745339626914E-03
               9.8859259656972880E-03
               2.2528371957052036E-04
              -3.6780729110997977E-03
               3.9587258821336801E-03
               5.6180465262128010E-04
              -1.3685390698265265E-03
               1.3499566370397626E-03
              -7.6254956386583809E-03
               2.7577781928612051E-03
              -2.9529508167976596E-03
               9.7797201510028617E-03
              -1.3734184696560009E-03
              -1.2444449146281631E-03
              -9.3915190650445868E-04
              -2.7950572080510023E-03
              -1.5112139309208321E-02
               6.8280873339141941E-03
               7.8884956716973988E-04
               1.4392122263163333E-02
               5.7121818401336131E-03
              -1.1734547469473822E-03
         &END THERMOSTAT_ENERGY
         &RNG_INIT
Wiener process for Thermostat # 1        1 F T T   1.0570193072987602E-01        2554248455.0        3733268398.0        2096963647.0         915983833.0        1292997779.0         989563289.0             12345.0             12345.0             12345.0             12345.0             12345.0             12345.0             12345.0             12345.0             12345.0             12345.0             12345.0             12345.0
Wiener process for Thermostat # 2        1 F T T  -5.0729818522276993E-01         187792199.0        1332764939.0        1272087322.0         282682701.0         988697858.0        4086000388.0        3692455944.0        1366884236.0        2968912127.0         335948734.0        4161675175.0         475798818.0        3692455944.0        1366884236.0        2968912127.0         335948734.0        4161675175.0         475798818.0
Wiener process for Thermostat # 3        1 F T T   8.9774137220556466E-02        3755061031.0        1753083868.0        1351179932.0         343881147.0        3312142877.0        1244557929.0        1015873554.0        1310354410.0        2249465273.0         994084013.0        2912484720.0        3876682925.0        1015873554.0        1310354410.0        2249465273.0         994084013.0        2912484720.0        3876682925.0
Wiener process for Thermostat # 4        1 F T T   2.1447125495896904E-01        2430503636.0         902227617.0        3039217662.0         205693714.0        2375800914.0        4220709598.0        2338701263.0        1119171942.0        2570676563.0         317077452.0        3194180850.0         618832124.0        2338701263.0        1119171942.0        2570676563.0         317077452.0        3194180850.0         618832124.0
Wiener process for Thermostat # 5        1 F T T  -7.4974817695318574E-01        3949927612.0        4293465109.0         224208328.0         677588237.0        2173092809.0        2514687022.0        1597262096.0        3906379055.0        3312112953.0        1016013135.0        4099474108.0         275305423.0        1597262096.0        3906379055.0        3312112953.0        1016013135.0        4099474108.0         275305423.0
Wiener process for Thermostat # 6        1 F T T  -2.3195632299180402E+00        4147399821.0         968438491.0         174961265.0         382156541.0        3672303660.0        2385050302.0          97147054.0        3131372450.0         829345164.0        3691032523.0        3006063034.0        4259826321.0          97147054.0        3131372450.0         829345164.0        3691032523.0        3006063034.0        4259826321.0
Wiener process for Thermostat # 7        1 F T T  -8.3038096976097500E-03        3725962017.0        3124905816.0        1692649901.0        3685368087.0         990134651.0        3321809881.0         796079799.0        2105258207.0         955365076.0        2923159030.0        4116632677.0        3067683584.0         796079799.0        2105258207.0         955365076.0        2923159030.0        4116632677.0        3067683584.0
Wiener process for Thermostat # 8        1 F T T   7.2955713326517235E-01        1426374835.0        1022225665.0        3431852557.0        2945126969.0        1347790872.0        2047858768.0        3281794178.0        2616230133.0        1457051261.0        2762791137.0        2480527362.0        2282316169.0        3281794178.0        2616230133.0        1457051261.0        2762791137.0        2480527362.0        2282316169.0
Wiener process for Thermostat # 9        1 F T T  -8.3876742673612970E-01        3633457436.0         863053678.0         665967915.0         928783000.0        4027924725.0        3556250224.0        3777646647.0        1837464056.0        4204654757.0         664239048.0        4190510072.0        2959195122.0        3777646647.0        1837464056.0        4204654757.0         664239048.0        4190510072.0        2959195122.0
Wiener process for Thermostat # 10       1 F T T  -6.7138423863751628E-01        3282585865.0         909372753.0         488063086.0        2442536289.0         174422437.0         477575080.0        4215590817.0        3862461878.0        1087200967.0        1544910132.0         936383720.0        1611370123.0        4215590817.0        3862461878.0        1087200967.0        1544910132.0         936383720.0        1611370123.0
Wiener process for Thermostat # 11       1 F T T  -7.2169956836733329E-02        3039538231.0          25912629.0        1608189467.0        1823124278.0        2331127605.0        2449500504.0        1683636369.0         362165168.0         814316280.0         869382050.0         980203903.0        2062101717.0        1683636369.0         362165168.0         814316280.0         869382050.0         980203903.0        2062101717.0
Wiener process for Thermostat # 12       1 F T T  -6.7722400494670465E-01        2762226669.0        4262778377.0        2250707948.0        3120407528.0        3704866228.0        1185520965.0         272317999.0         166758548.0         310112982.0         201045826.0        1680231254.0         118290799.0         272317999.0         166758548.0         310112982.0         201045826.0        1680231254.0         118290799.0
Wiener process for Thermostat # 13       1 F T T  -7.3817531449270457E-01        3689403510.0         367299738.0        3636386471.0        1925893934.0        3355800516.0        3520562622.0        2245755202.0        1652682525.0        2865544364.0         721509566.0         209733568.0         592362218.0        2245755202.0        1652682525.0        2865544364.0         721509566.0         209733568.0         592362218.0