 # Version information for this restart file 
 # current date 2023-11-30 17:35:52.726
 # current working dir /home/hv454/comp-lab-class-2023/Week12/Runs/Proton
 # Program compiled at                              Sat Dec 12 18:27:15 EST 2020
 # Program compiled on                                         cs001.nyu.cluster
 # Program compiled for                                                nyu-intel
 # Source code revision number                                       git:8c64c6e
 &GLOBAL
   PRINT_LEVEL  LOW
   PROJECT_NAME proton_aimd_1ns_every0.5fs
   RUN_TYPE  MD
   WALLTIME 21600
 &END GLOBAL
 &MOTION
   &GEO_OPT
     OPTIMIZER  BFGS
     MAX_ITER  100
     MAX_DR     3.0000000000000001E-03
     &BFGS
     &END BFGS
   &END GEO_OPT
   &MD
     ENSEMBLE  NVT
     STEPS  2000
     TIMESTEP     4.9999999999999994E-01
     STEP_START_VAL  1000
     TIME_START_VAL     4.9999999999999636E+02
     ECONS_START_VAL    -1.1180339613148931E+03
     TEMPERATURE     3.0000000000000000E+02
     &THERMOSTAT
       TYPE  GLE
       REGION  MASSIVE
       &GLE
         NDIM  5
         A_SCALE     1.0000000000000000E+00
         A_LIST     1.8595758612559999E+02    2.7263853498399998E-01    1.1526100454610001E+01   -3.6414578262600003E+01 \
             2.3173375816020001E+02
         A_LIST    -2.7809524712060002E-01    8.5951591808710006E-05    7.2189048017650004E-01   -1.9844539343859999E-01 \
             4.2409257583420001E-01
         A_LIST    -1.4825808131210000E+01   -7.2189048017650004E-01    1.3590902121280000E+00    5.1498896280349999E+00 \
            -9.9949268450990001E+00
         A_LIST    -1.0372189126880000E+01    1.9844539343859999E-01   -5.1498896280349999E+00    2.6661910891169999E+01 \
             1.1507715495310000E+01
         A_LIST     2.1801346360420001E+02   -4.2409257583420001E-01    9.9949268450990001E+00   -1.1507715495310000E+01 \
             3.0958394565589998E+02
         &THERMOSTAT_ENERGY
               8.8590784666948176E-03
               2.0889359953851282E-03
               1.5580475414403593E-02
               1.5091642144931887E-03
              -5.9967369394852256E-03
               4.4343962621978894E-03
               6.6101770188167347E-03
               3.5513345690163390E-03
              -1.3572495896911779E-03
              -4.1275442706601613E-03
              -1.4850779475732115E-03
              -1.9085408843471765E-03
               4.1501027174374290E-05
              -8.9903919255038718E-03
               1.0593108044406033E-03
               7.7689713783588741E-03
              -3.3819536517365415E-03
              -4.6243081835041664E-03
               9.7781783089536060E-03
               6.2228008069733593E-03
              -6.1238314198461333E-03
              -2.5997273245279310E-03
              -1.4946155556907843E-03
              -1.0897444294128615E-03
               1.1334022033353012E-03
               1.9983399270884269E-03
              -1.3255287071600841E-02
               6.8474247904204387E-03
               1.6752583049412890E-03
               5.9034999633488855E-03
               4.7308741333258455E-03
              -1.0121310166664728E-04
               2.2182420647189082E-03
               3.0294037821482346E-03
              -2.2327413019633709E-03
               4.3609158408980768E-03
              -1.7232080431726178E-03
              -1.0906620623877145E-02
               1.3502971708055127E-02
               2.9982434951015525E-03
               7.4525550418056156E-04
               2.8726059936316781E-03
              -5.5871595713225244E-03
               3.4534804128826951E-03
              -3.0727082549449648E-03
               5.5982121080290614E-03
              -1.5073685279684706E-03
              -2.1212347872722219E-03
               2.8885222244542392E-03
              -2.3679463331528943E-03
              -6.0768678524836537E-03
               2.0901363662139418E-03
               4.5485745155463856E-03
              -5.9154020591799337E-03
              -4.4001887782379248E-03
              -5.6733151673146499E-03
              -4.4201383770814109E-03
              -4.9648472261277067E-04
               1.5346918860324033E-04
              -7.5501878543132468E-03
              -4.4325235089175729E-03
               1.8413671730114990E-03
               1.3019868734486227E-02
               3.2000097083786276E-03
               9.9170037459313937E-03
              -7.6265382859362725E-03
              -3.5418938439209955E-03
               1.0155525242532201E-03
               2.8123306350031725E-03
              -9.7568393522494488E-04
               8.4000140261514689E-03
              -6.4591694010502298E-04
               2.9423063438019327E-03
              -2.2783669658300908E-03
              -1.0670502263764154E-03
              -4.7261404209473900E-03
               4.1656882515170093E-03
              -4.0353593996723357E-03
               1.2789343807814933E-02
              -1.5766885588281512E-03
              -5.7076975751026143E-03
               2.5115559585126442E-03
              -7.6013267408784290E-04
               3.1124389204462778E-04
              -2.9413562879113979E-03
              -1.0077144297162637E-03
               7.1316370785670640E-03
               2.2110422077455836E-03
              -3.9021421317738305E-03
              -9.7097501222331035E-03
               3.6447780973750477E-03
               5.6333898440442381E-03
              -4.8713065967184391E-03
               2.3643200863852814E-03
               6.4914505682808522E-03
               5.3517857145372683E-03
              -5.3988459342898072E-03
               5.4122266489412367E-03
               1.1816233898999677E-04
              -1.4731927381337234E-04
              -6.1458604944957503E-03
              -2.6497513100145129E-03
               4.9984409973191490E-03
              -2.8374321059073007E-03
               3.2102980075415571E-03
               1.1760957538957213E-02
               1.6909909209090437E-02
               3.7370634682246237E-04
               5.5483345407505609E-03
               2.8891691724720555E-02
               3.4164467649995395E-02
               2.4681894477898425E-03
               3.8568361855211061E-03
               3.2930031995756165E-03
               3.1241988675757585E-03
               1.7106265702277135E-04
              -1.0998915042753745E-02
               1.1408329510101243E-02
               6.0458779916387856E-05
              -1.4673786550925270E-03
               3.5161261392559710E-03
              -3.6651990053561978E-03
               6.6405777382489879E-03
              -5.7897853814573375E-03
               1.6129221122520906E-02
              -5.3569435314779496E-03
               1.8987823395534807E-03
              -1.9186411497290222E-04
              -1.2663693467871145E-02
              -2.3317745259494316E-03
               7.0454802760458882E-03
               3.5688443584629380E-03
               9.7059793009274676E-04
              -3.6663733628521638E-03
              -4.9392140236823243E-03
               1.7822293106137821E-03
              -1.0950506412949562E-02
               4.9600873088747064E-03
              -1.3581774079262119E-04
               1.9836715498784368E-03
              -1.1174445901354182E-03
               2.8568975058071320E-03
               1.0882041308251855E-02
              -1.0964657147883677E-02
               1.9157480975562275E-03
              -7.2493242443354014E-04
              -6.6400549951930934E-04
               2.4523376939759147E-03
              -2.8246935855529552E-03
               3.8691398169916316E-03
              -3.2634730865454473E-03
               1.1967703797080846E-03
               3.5681134184649792E-03
              -8.8994649368625382E-03
               1.0005937254758335E-02
              -5.0573870415673667E-03
              -5.1886043493755635E-03
              -2.1615308640825777E-03
               3.2206673841944119E-03
               2.2815970334309670E-03
               4.6684741235444400E-03
              -8.2690187861290364E-03
              -7.6908624127743222E-03
               5.0966316940666070E-03
               5.9218065540575290E-03
               5.3398532234374052E-03
              -2.8167116511076734E-03
              -2.1276619791029810E-04
              -8.3401949128117589E-03
               4.8923617398154689E-03
               2.8523339461526604E-03
               5.2704407829064171E-03
               1.1382198505093023E-02
              -8.4552214832007023E-03
               1.0956979201150324E-03
               7.5274448116794085E-04
               2.0439568101533610E-03
              -1.7259441846430889E-03
              -4.5503700870159775E-03
              -6.3466540202642679E-03
              -9.1113427139265148E-03
               7.8604188713603477E-03
               3.3748654706636642E-03
              -6.0531495474857692E-03
               4.9529481185573896E-04
               2.5441664599609652E-03
               5.4431149731016528E-03
               1.0490818683132165E-04
              -6.7920704463358544E-03
              -3.2500223521409973E-03
              -1.9512586113810040E-03
               5.6187185759241391E-03
              -1.7282606905907596E-03
              -4.3884252458807477E-03
               1.3655816130657820E-03
               7.9037714030423048E-03
              -8.2659990581391580E-03
               1.2752166368218527E-03
               1.1856531147495194E-03
              -3.9951515636366163E-03
               3.5297653660710995E-03
              -4.1977851120150137E-04
              -2.2160995786578725E-03
               7.5499817170873967E-04
              -5.5333073714108694E-03
              -9.7819806942286806E-03
               5.5220768295414779E-03
               9.4751170318602262E-03
              -5.3599005960858280E-04
               7.1022398062798760E-03
              -4.0545038909431423E-03
               3.2779667089218884E-03
               5.4303297588584112E-03
               2.8807696223750357E-03
              -3.8857892408338756E-03
               8.0931785542374192E-05
              -4.5923703717251838E-03
               6.7290594049854210E-03
               4.7292099951368365E-03
               3.5863656667511424E-03
              -1.3107649902768404E-03
               1.3407860918691614E-03
              -3.7352965978038606E-03
              -1.4598533142876785E-04
              -1.6537913424873501E-03
               7.2524849970990915E-04
              -1.8863546227431576E-03
               9.5260249947193548E-03
              -1.2911671714780028E-03
               1.0302189183369949E-02
              -2.2734309181540527E-03
               2.1307918606300676E-03
               2.1876902677930177E-03
               5.3113513049604230E-03
              -2.8648717024063485E-03
               1.1697985547851710E-03
              -6.6224563742668858E-04
              -1.9352183671203355E-04
              -7.3939622345870132E-04
              -6.2648209959574705E-04
               2.9311123475799414E-03
              -2.5438050557475464E-03
               1.3235745213715311E-03
              -7.0382341026065283E-04
              -1.8027910349348371E-03
              -3.0197839118677842E-03
              -3.4384215401999205E-03
               3.3228168855675725E-03
              -5.5717251741154994E-03
              -3.6801250549443735E-03
               8.1703276089765253E-03
              -8.4478101804915046E-04
              -2.1317631098764903E-03
              -4.4999848073503258E-03
               4.7056170167667794E-03
              -3.0626141604855528E-03
              -5.7688263562304257E-03
               6.1033576804762706E-04
              -6.9135073945557615E-03
              -2.1926065435686642E-04
               7.5413242200262345E-03
               2.6773691727629279E-03
               5.9568631297814475E-03
              -1.5328698020783526E-03
               1.0277669288754341E-02
               3.6682546067899687E-03
               1.0062176188962092E-02
              -1.9777466825059214E-03
               4.7541705899721955E-03
              -3.3899399260168541E-03
               9.7441321827527235E-03
               1.0126669321436606E-03
               3.3043960175803294E-03
              -5.2879361326359882E-04
               2.7367305106731116E-03
              -1.5057891288919431E-03
              -9.1537493017563483E-03
               3.7595617069531660E-03
               5.3760976580407311E-03
               9.5366480497869020E-03
              -5.3106277688856071E-03
              -6.0063575441516529E-03
               5.5071805767797875E-03
              -3.9136016554287140E-03
               3.9117975507915121E-03
              -1.9420616332177583E-03
              -7.1271371559976189E-03
              -5.9344067062458428E-03
              -1.0024658446461603E-02
               8.0614970403012041E-03
               2.8588081872018799E-03
              -1.2916771324405928E-03
               5.2205520779366431E-03
               6.5982914865711712E-04
              -9.2953307907305965E-03
               9.3051481903218825E-03
              -1.4329573097606827E-03
               4.3993480364483400E-03
              -4.2755456601038877E-03
              -5.3546885973639758E-03
              -4.6700934557992232E-04
               1.1259248242304747E-02
               6.3119519297546176E-03
               7.2241183209215860E-03
               6.9906276786322278E-03
              -6.3344588856652151E-03
              -3.5647886899672319E-03
              -6.1796748303512544E-03
               5.0987009011337530E-03
               3.7399629048389710E-03
              -6.8829544725820433E-04
              -6.6575445538580320E-03
               2.9539194939319897E-03
               4.4483469628591992E-03
               2.6600077838360068E-03
              -9.5808922500001861E-03
               2.8503464586526430E-05
               2.7758950019858598E-03
              -6.3412630900857346E-03
               1.5618059082820913E-03
               2.2310456242502193E-03
              -4.3207452085039094E-03
               5.9659941388691732E-04
               2.3100776328394967E-03
              -7.4623341973324491E-04
               4.5646112802822814E-03
               6.7989895987589628E-04
               2.3274694266669236E-03
               2.0879990806335000E-03
              -1.2225850111761559E-03
              -6.7622518293453931E-03
              -7.0922633792331832E-04
               7.2998960524731987E-03
               4.8259214040794699E-04
               1.2048780030310374E-03
               6.4230103258629235E-04
               5.3669138620598021E-03
               3.8090946235623101E-03
              -6.9019180517853869E-04
              -7.8869974258020243E-04
              -4.5959236220630174E-03
               1.2342032730149135E-03
               7.3949246003210435E-03
               3.2129245430011148E-03
               4.6064918039608466E-03
               6.1910506125079923E-03
               1.7285803922108775E-03
              -2.8918078303147993E-03
               5.5928811760871345E-03
              -1.2184426867950682E-03
              -5.8647493542934182E-03
               2.0921277597355302E-03
              -5.5115223036892383E-03
               3.3773693627678087E-03
              -8.8317935286907846E-04
              -2.4802908142492479E-03
              -8.8182130696839349E-04
               4.1244938975925618E-03
              -5.5928890052547951E-03
               1.2701471553488170E-03
               7.5449622889602768E-04
               4.8047125346397800E-04
               9.0914300225114607E-03
               2.3972834485576238E-03
               3.5924841477486002E-05
               4.8084390491194805E-03
               1.9675106344649671E-02
              -2.3283174634749467E-03
              -1.7797896208357599E-02
              -6.9240611566941859E-03
               1.3623028030547834E-03
              -2.8358335691726017E-03
              -7.8368885104850190E-04
              -9.1099387614321597E-05
              -1.8042896176964805E-03
              -3.4330021413804699E-03
              -2.1055621423219594E-03
              -3.0364192800564423E-03
              -6.7784466929162093E-03
               2.4734233503182967E-03
               6.7317923618205322E-03
               3.3790363766982340E-03
               8.1356813329747806E-04
              -1.5238332275523804E-03
              -6.9114310623512717E-03
              -1.0019510579537402E-03
               6.0557196519657516E-03
               4.3632352612699016E-03
              -2.7986444788881699E-03
               5.9497865821595995E-03
              -2.5229181669996019E-03
               4.7558149180314145E-03
               5.4947489858060195E-04
              -8.2215055014774555E-03
               5.6073584916523610E-03
               4.2575981433308199E-03
              -6.1604429844990720E-04
              -2.4490083270111429E-03
              -1.5698341470878224E-03
              -2.8639284695548902E-03
              -3.7505611488628568E-03
              -2.1302821366833715E-03
              -3.8214923508785243E-03
              -4.0493516730974325E-03
               2.5366190563782692E-03
              -4.8762773146083203E-03
               6.3047902195095676E-04
              -6.1590969132074465E-03
              -3.1109817181981681E-03
               2.4608742606427774E-03
               1.3333152596101908E-03
               2.4403641302764207E-03
              -6.1209806919899565E-03
              -5.0865727541417262E-04
              -4.0101140934792603E-03
               5.7921351729083659E-03
              -5.9010782067567477E-03
               7.9152512809474549E-05
               1.8544443330644087E-03
               3.9995350615484896E-03
               4.4511957374662901E-03
               1.8732516683174331E-03
              -4.6032991493085368E-03
               3.9498699581720805E-04
               2.5452383915370541E-03
              -1.3849220763228970E-03
               3.2538313432890456E-03
              -5.4102570794464008E-03
               2.3370154029097368E-03
               6.8409823654960941E-03
              -4.5272989566143545E-03
              -4.6482485065949073E-03
              -8.6550264392119963E-03
               3.4962087899911916E-03
               4.5350661749745617E-03
               3.7911876895021803E-03
              -4.6260943739782970E-03
              -2.3788586774989196E-03
               2.5737971977839334E-03
               5.1945998818741408E-03
               4.6948027456191312E-03
               2.6181322277799290E-03
               2.7568383095501209E-03
              -4.2381683376886280E-04
              -1.3459714210190101E-03
               5.6304051831149995E-03
               4.7179827930453316E-03
               7.7834030470408030E-03
               6.0627609716247402E-03
              -9.4979478595282989E-03
              -3.2683248370748534E-03
              -5.8530972038263601E-03
               7.5322874258604757E-03
              -1.1496032580038190E-03
               3.4363164007015583E-03
              -1.6696731291641319E-03
              -4.4321151455715404E-03
               2.6648481505032345E-03
              -1.1425552651084933E-02
              -5.8270422669612024E-03
               8.8028977080773837E-03
               1.1021787767529578E-02
              -3.1780908099649737E-03
               1.1195484179055094E-03
               5.4783760947623049E-03
               3.9644307549390632E-03
               2.9715187423726554E-04
              -5.0883878012448576E-03
              -2.9177348457836365E-04
              -3.6137926081034194E-03
               1.6372783700640302E-03
              -3.2511349721717773E-05
               4.4469008853941496E-03
              -1.3190787074557977E-03
               3.1431906098786035E-03
               4.1584347578277154E-03
              -5.2766268055200972E-03
               5.3683339496887696E-05
               1.0423064446334462E-03
               3.0022736441054740E-03
              -2.0917214341248228E-03
              -3.5942429291731048E-04
               3.4538436340670643E-03
               4.9130938881898718E-03
               3.2799425924660550E-03
              -2.6903301693032506E-03
              -5.3344884289001637E-03
               2.2751974600527759E-03
               1.2947503424199634E-03
              -1.4202288577315797E-03
               1.2520112807733856E-03
               3.9492821338140910E-03
               7.5165586698950652E-03
              -8.8237050690458032E-03
              -4.3179500888753386E-03
              -1.8038372675080628E-03
               2.5790878947757924E-03
               1.9078070823279837E-03
               6.4600913489929997E-03
               1.2751404386676507E-03
              -1.6299033390097405E-03
              -4.8562927594735710E-04
              -1.5577128086884533E-02
               1.8932406117426807E-02
               4.7795355723533207E-03
              -4.3369344215077937E-03
              -6.5135360697707485E-03
              -1.4059456730057155E-04
               2.7650161098057972E-03
               1.4879549713755010E-03
              -3.2681627604160884E-03
              -1.4192772207802038E-03
              -3.5098477387992136E-03
              -9.1411831647955650E-03
               1.1551594533881727E-02
              -4.8876024762080795E-03
              -5.5886766850123904E-03
               4.1691737995800419E-03
               3.3229651144309671E-03
              -3.6329479344480965E-04
              -6.4004612873142198E-03
               1.9827957855033996E-03
               6.8329280856394199E-04
              -2.7670936915218094E-03
               3.0117757771469379E-03
               1.1786095830864773E-03
              -4.8899747762090684E-03
              -1.2464985530260078E-04
              -3.4046157460408747E-04
               4.3819035333131423E-03
               1.0863846977619081E-02
               2.5953469036491575E-04
              -2.0449796195537054E-03
              -2.5088975545668152E-03
               3.2784755788408267E-03
               3.2421868667917270E-04
               5.0960719088536804E-03
               4.2867702994882795E-04
              -6.6376405633775028E-03
               7.7205218646957049E-03
               4.2770798462985126E-03
              -1.9099984323876608E-03
              -6.0340644653983748E-03
               1.7028515374846419E-03
               8.0701493246839763E-03
              -3.0596867306155674E-03
               3.4084605869383446E-03
               2.5620828861757611E-03
               6.2072373581326752E-04
               4.2030148615259796E-03
               4.7512346227748725E-03
              -1.3335803151350408E-02
              -1.0553133088362446E-03
              -6.2915791130804572E-04
               1.3407199205902089E-03
              -5.1672527101549381E-03
              -1.1023736286970526E-03
              -1.0967417175226039E-03
               5.3021193272357221E-03
               4.5364528734174146E-03
               1.6960941264382986E-03
               1.7718142872217100E-03
               1.7292422716438740E-03
               2.7473952257541076E-07
              -1.7506517498647998E-03
              -4.7075367388542513E-05
               7.5522979206565401E-07
              -4.4811106113267331E-03
               6.5586824377078601E-03
               8.1667550501306229E-04
              -1.9431046725282850E-04
              -1.1439432968294323E-03
              -8.7993071841647346E-04
              -8.3726420695564522E-03
              -3.7579229880901828E-04
               1.3987505847010057E-03
               8.3624110999351176E-03
               9.4260989044681852E-03
              -6.1679777461696788E-03
         &END THERMOSTAT_ENERGY
         &RNG_INIT
Wiener process for Thermostat # 1        1 F T T  -9.8236738167888460E-01         226733040.0        4248387519.0        1164353849.0        2758509449.0        3644127687.0        1764793484.0             12345.0             12345.0             12345.0             12345.0             12345.0             12345.0             12345.0             12345.0             12345.0             12345.0             12345.0             12345.0
Wiener process for Thermostat # 2        1 F T T  -1.4171306107827426E+00        1528154308.0        2775625301.0         197130159.0        1452211673.0        1835562137.0        1983376171.0        3692455944.0        1366884236.0        2968912127.0         335948734.0        4161675175.0         475798818.0        3692455944.0        1366884236.0        2968912127.0         335948734.0        4161675175.0         475798818.0
Wiener process for Thermostat # 3        1 F T T   8.6049543281786645E-01        2248570378.0        1724762616.0          52903713.0        3229622658.0        3199004837.0        4241126217.0        1015873554.0        1310354410.0        2249465273.0         994084013.0        2912484720.0        3876682925.0        1015873554.0        1310354410.0        2249465273.0         994084013.0        2912484720.0        3876682925.0
Wiener process for Thermostat # 4        1 F T T  -1.5460863137690717E+00         957380376.0         510326667.0        2247033635.0        2033071685.0        3054261466.0        3462352516.0        2338701263.0        1119171942.0        2570676563.0         317077452.0        3194180850.0         618832124.0        2338701263.0        1119171942.0        2570676563.0         317077452.0        3194180850.0         618832124.0
Wiener process for Thermostat # 5        1 F T T   1.5428690481661575E-01        4203301200.0         738999836.0        1485820986.0          20648636.0        2223680357.0        4294941489.0        1597262096.0        3906379055.0        3312112953.0        1016013135.0        4099474108.0         275305423.0        1597262096.0        3906379055.0        3312112953.0        1016013135.0        4099474108.0         275305423.0
Wiener process for Thermostat # 6        1 F T T   7.0411917217518150E-01        1265311014.0        3687607523.0        1792102642.0         142025920.0         459804801.0        1211121065.0          97147054.0        3131372450.0         829345164.0        3691032523.0        3006063034.0        4259826321.0          97147054.0        3131372450.0         829345164.0        3691032523.0        3006063034.0        4259826321.0
Wiener process for Thermostat # 7        1 F T T  -9.5744195640119531E-02        4040223344.0        4246262317.0         329086624.0          28777921.0        2946509694.0        1489700490.0         796079799.0        2105258207.0         955365076.0        2923159030.0        4116632677.0        3067683584.0         796079799.0        2105258207.0         955365076.0        2923159030.0        4116632677.0        3067683584.0
Wiener process for Thermostat # 8        1 F T T  -1.2413826789147817E-01         252045112.0        2848200345.0         154646410.0        1271924195.0        1873079261.0        3351978939.0        3281794178.0        2616230133.0        1457051261.0        2762791137.0        2480527362.0        2282316169.0        3281794178.0        2616230133.0        1457051261.0        2762791137.0        2480527362.0        2282316169.0
Wiener process for Thermostat # 9        1 F T T   1.0331244080464512E+00        3784506675.0        1914172684.0        3527875272.0        1610827989.0        3855196701.0        1117597481.0        3777646647.0        1837464056.0        4204654757.0         664239048.0        4190510072.0        2959195122.0        3777646647.0        1837464056.0        4204654757.0         664239048.0        4190510072.0        2959195122.0
Wiener process for Thermostat # 10       1 F T T   2.1466585360569199E-01        3057685686.0        2869029583.0         411221469.0        2821893460.0         322924656.0        1143227575.0        4215590817.0        3862461878.0        1087200967.0        1544910132.0         936383720.0        1611370123.0        4215590817.0        3862461878.0        1087200967.0        1544910132.0         936383720.0        1611370123.0
Wiener process for Thermostat # 11       1 F T T  -4.4132046785776799E-02        1554543736.0        2717576499.0        4135075403.0        2618383353.0         642871762.0         249586537.0        1683636369.0         362165168.0         814316280.0         869382050.0         980203903.0        2062101717.0        1683636369.0         362165168.0         814316280.0         869382050.0         980203903.0        2062101717.0
Wiener process for Thermostat # 12       1 F T T  -5.6161533877704317E-01        1770324141.0        3770017049.0         190859559.0         764828178.0        2918138424.0         736540625.0         272317999.0         166758548.0         310112982.0         201045826.0        1680231254.0         118290799.0         272317999.0         166758548.0         310112982.0         201045826.0        1680231254.0         118290799.0
Wiener process for Thermostat # 13       1 F T T   9.7554409384929153E-01        3627045108.0        1898589428.0        2752141753.0          85759421.0        2499273175.0        1137986601.0        2245755202.0        1652682525.0        2865544364.0         721509566.0         209733568.0         592362218.0        2245755202.0        1652682525.0        2865544364.0         721509566.0         209733568.0         592362218.0