 # Version information for this restart file 
 # current date 2023-11-30 16:25:09.378
 # current working dir /home/hv454/comp-lab-class-2023/Week12/Runs/Proton
 # Program compiled at                              Sat Dec 12 18:27:15 EST 2020
 # Program compiled on                                         cs001.nyu.cluster
 # Program compiled for                                                nyu-intel
 # Source code revision number                                       git:8c64c6e
 &GLOBAL
   PRINT_LEVEL  LOW
   PROJECT_NAME proton_aimd_1ns_every0.5fs
   RUN_TYPE  MD
   WALLTIME 21600
 &END GLOBAL
 &MOTION
   &GEO_OPT
     OPTIMIZER  BFGS
     MAX_ITER  100
     MAX_DR     3.0000000000000001E-03
     &BFGS
     &END BFGS
   &END GEO_OPT
   &MD
     ENSEMBLE  NVT
     STEPS  2000
     TIMESTEP     4.9999999999999994E-01
     STEP_START_VAL  500
     TIME_START_VAL     2.4999999999999795E+02
     ECONS_START_VAL    -1.1180339613148931E+03
     TEMPERATURE     3.0000000000000000E+02
     &THERMOSTAT
       TYPE  GLE
       REGION  MASSIVE
       &GLE
         NDIM  5
         A_SCALE     1.0000000000000000E+00
         A_LIST     1.8595758612559999E+02    2.7263853498399998E-01    1.1526100454610001E+01   -3.6414578262600003E+01 \
             2.3173375816020001E+02
         A_LIST    -2.7809524712060002E-01    8.5951591808710006E-05    7.2189048017650004E-01   -1.9844539343859999E-01 \
             4.2409257583420001E-01
         A_LIST    -1.4825808131210000E+01   -7.2189048017650004E-01    1.3590902121280000E+00    5.1498896280349999E+00 \
            -9.9949268450990001E+00
         A_LIST    -1.0372189126880000E+01    1.9844539343859999E-01   -5.1498896280349999E+00    2.6661910891169999E+01 \
             1.1507715495310000E+01
         A_LIST     2.1801346360420001E+02   -4.2409257583420001E-01    9.9949268450990001E+00   -1.1507715495310000E+01 \
             3.0958394565589998E+02
         &THERMOSTAT_ENERGY
               8.2047641964392397E-03
               4.9776808339846922E-04
               1.0567662360243023E-02
               9.9474225915070053E-04
              -2.9903478948850029E-03
               6.4524267374741181E-03
               1.0772625540175708E-03
              -3.5544910973599983E-04
               2.5295622318351218E-03
              -5.7797452131893119E-03
               5.3019493192705512E-03
              -3.6409279462126997E-03
               1.6885683395192427E-03
              -2.8767110049275988E-03
               1.0557026636605566E-03
               7.3882262176273028E-03
              -9.9254493280907189E-04
              -4.8151716431298636E-03
               3.9986353790609610E-03
               7.9196434441463938E-03
              -3.0940657777165062E-03
              -2.2709865167473821E-05
               1.6243049544041278E-03
               2.5894835335584492E-03
               4.4978913869879568E-03
               1.5334260784343912E-03
              -9.8276289137281519E-03
               5.7032838334083076E-03
               1.7475796057958575E-03
               5.8587954673715585E-04
               2.3406834712677406E-03
               2.4041709289832755E-03
               2.8663761713801127E-03
              -1.8716248173741867E-04
              -4.1987901115774651E-03
               6.3861861149773144E-03
              -1.4116225994866996E-03
              -3.2359116612049712E-03
               2.6948993921474414E-03
              -1.1068993999461486E-03
               1.1974682998442765E-04
               2.1343001233156927E-03
              -1.3940072655823699E-02
               8.1586378219814810E-03
               2.6784118066091340E-03
               2.6855933531546466E-03
              -1.9711409766685816E-03
              -9.9161765630154304E-04
               1.2890193366895423E-03
              -2.3602879183407051E-03
              -4.0565459601527593E-03
              -2.4288079928387945E-03
               2.8188676773797630E-03
              -1.2204036837746130E-03
              -9.1608081612820757E-03
               3.6278382867817437E-03
              -1.5174033964367385E-03
               9.1408133533331251E-04
              -7.8388833471671913E-04
              -1.8324037657514408E-03
              -2.9705951697692337E-03
              -4.3281910092941370E-03
               6.1196664449445796E-03
               6.8925320290926595E-03
               1.3744195609921611E-03
              -1.8771014063038672E-03
               7.1971395892843435E-04
               1.9886994797519071E-03
               1.3992779706797800E-03
              -1.7165334046565664E-03
              -1.6975807765712083E-03
               1.0732670249007736E-03
               4.7846719135406597E-03
              -9.1633072790974423E-04
               1.8192515483319773E-03
              -3.1278106361638555E-03
               2.1200455879231976E-03
              -1.2768286087483857E-03
               1.5614790055835451E-03
              -2.3062153857503816E-03
              -1.0632304938568721E-03
               2.3745556360635677E-03
               9.0627696860644204E-04
              -2.9657103151978652E-05
               2.1703448316268180E-03
              -3.3056424439619750E-03
               3.2456815448583648E-03
               2.3734580170768648E-03
              -3.7689514022142181E-03
              -1.4741138275383195E-03
               1.8595753402843060E-03
              -2.5212013688261023E-03
              -4.4846657600564844E-03
               1.0114502385071378E-03
               3.4198509757789688E-03
               3.8872872339713424E-03
              -2.4185032648451664E-03
               2.2911092512579788E-03
               2.4220198542543427E-03
              -3.5212034292830276E-03
              -6.8524141240089700E-03
               6.3811439829441156E-03
               4.7140217284617489E-03
              -8.9114700405175861E-04
               3.6134338542604893E-03
               5.1761286993322452E-03
               2.5427158077152314E-02
              -4.7160706274869298E-03
               7.5368980438532216E-03
               1.9305330289507462E-02
               3.9245156707142549E-02
               1.0407508956385590E-03
               1.4070546394490738E-03
               5.9386104388364823E-04
               3.4880387620028108E-03
              -1.6827514395299662E-03
              -5.3319070571742483E-03
               8.0107711809834573E-03
               7.6106516342214995E-04
               2.3639250894743182E-04
               3.1264357072438523E-03
              -1.6141058687578953E-03
               2.5246032130123996E-03
              -1.7803989194960974E-03
               6.7568845752555970E-03
               2.1982449558398042E-03
               1.0989644756462997E-03
               1.5812947917334557E-03
              -7.9298597904761767E-03
              -3.1427149522031433E-04
               2.5082132298082055E-03
              -3.9502078703027390E-04
               4.4932433587915351E-04
              -4.2086460796208359E-03
              -1.4938730423269242E-03
              -1.3919103652315840E-03
              -3.3931706885412497E-03
              -2.2095149563971546E-04
               1.1863933553619803E-04
              -1.4044171386936670E-03
               4.3318713398893071E-04
              -1.4649658702888136E-03
               3.6212593295024162E-03
              -9.0285370383824779E-04
               4.3594560189231749E-03
              -4.8208944177151550E-03
               3.7209959859903653E-03
               1.8946310999913122E-03
              -4.1266604157487400E-03
               6.7522315802325331E-04
              -1.0655682484881275E-03
              -1.4967982456324835E-03
               4.0383073445860495E-03
              -7.0845181837300856E-03
               6.0654573782023659E-03
               1.8831409853536719E-03
              -2.7602569714972355E-03
              -1.6684418103881007E-03
               4.4963759295395879E-04
               1.6030861033242583E-03
              -4.9251998950241801E-04
              -4.0704150443073460E-03
              -7.2792115330674329E-03
               7.0440554137062572E-03
               4.1167363760698603E-03
               5.0040192226029900E-03
              -1.2782197223568967E-03
              -2.2768344027608960E-03
              -1.6593988814652145E-02
               9.1128848221255151E-03
               6.1989035603774020E-03
               7.2505741846794047E-03
               4.6883112812336264E-03
              -4.0387545172245500E-03
               1.7175094504134538E-03
               3.6748475550310540E-04
              -2.6716749007169743E-03
              -1.9915926917995182E-03
              -2.3324478934511015E-04
              -6.2378728268529075E-03
              -4.4149161243821674E-03
               7.4099592758689204E-03
               2.0208379476071210E-03
              -6.3101000667380204E-03
               7.3736403856673196E-04
              -5.5495288224917806E-05
               6.2870902081824777E-03
              -4.6199843572799389E-03
              -2.3226983608054075E-03
              -1.7352382520812793E-03
               4.1312895329351240E-05
               3.3910430128829445E-03
              -2.2071377513794583E-03
              -4.8844408268954951E-03
               1.6810217121843072E-03
               3.5024998855462900E-03
              -4.1218374360651889E-03
               2.8264079558637002E-04
               5.0743404795876713E-04
               3.7124164200434281E-03
               2.3877795180686232E-03
               2.0105428431632872E-03
               3.8736401265897788E-04
               8.6519387479750190E-04
              -4.2397956903307164E-03
              -6.2151305055216793E-03
               3.3479956761506609E-03
               7.8794312874637873E-04
              -4.4393597466344638E-03
               7.9257009632969881E-03
              -1.4760719510922826E-03
               5.9710389236749628E-04
               3.8360121604759279E-03
               1.5295551115667312E-04
              -4.2547291867857748E-03
               4.0810458698921671E-03
              -2.2255307205271079E-03
               7.5459410320016123E-04
              -1.2204130513975993E-03
               3.6217193353770679E-03
              -2.4865394101635835E-03
               3.2003004362798522E-03
              -1.7706098016911334E-03
              -1.8406814570768801E-03
              -1.4587889068407576E-03
               4.8950320020254220E-03
              -2.0201804145637404E-03
               1.1944089651798671E-03
              -1.3643430949305821E-03
               1.1395390368220499E-02
               4.5647713726231463E-04
               3.2868844897119519E-03
               3.9685555941444649E-03
               2.2020727103269928E-03
               1.6772753781382143E-03
               2.2343750628850325E-03
              -4.6884607198434307E-03
              -2.5174914538413762E-04
               3.3916421713808131E-04
              -1.5879514669314571E-04
              -5.1310304502587079E-03
              -1.5132346950365409E-03
               4.9695586073408389E-03
               3.4129573142177030E-04
              -2.2554537721323656E-03
              -2.6509724816378946E-03
               8.8089465066947068E-04
              -1.7608713198181795E-03
              -2.8933151387452302E-03
              -3.8982017020005792E-03
               6.5726384662133667E-04
               9.1325988043798785E-04
              -3.3535984464713718E-03
               1.8622825605337184E-03
              -3.9737611111058759E-04
              -2.2916620011216408E-03
              -1.5624585869930699E-03
              -1.2278594096698525E-03
              -2.9782152525016393E-04
              -1.3486360582092992E-03
               1.6485693751647277E-03
               3.4420542377728790E-03
               4.8616250044901665E-03
              -4.2486761360447422E-03
               9.7922885848406010E-03
               2.8359089974842322E-03
               7.3042697697480339E-03
               2.2323296524395762E-03
               2.9578791156566800E-03
               1.4355321116252420E-03
               2.8073032132101055E-03
               3.6718625752399166E-03
              -2.0434675232836874E-03
               2.5841394262359174E-04
               2.2478348504014973E-03
              -2.6070161183773385E-03
              -1.7303473516192412E-03
               4.5717100948453439E-03
               2.7312182988497363E-03
               8.1935184729157290E-04
              -3.9907604085956463E-03
              -2.7617820882218863E-03
              -1.5466129658908616E-04
              -1.3680047188603757E-03
               3.2443251830410733E-03
              -5.5166747330422290E-04
              -6.0834698574435361E-04
              -6.1005016854541877E-03
              -2.9886767609381510E-03
               7.4790726569093314E-04
              -1.2674945607594923E-03
               3.5676762825640493E-05
               2.6790555187783207E-03
               9.6056735780768773E-04
              -8.8885166644085158E-04
               3.0992612452689665E-03
              -7.4498538212228365E-03
               3.8442422617498682E-03
              -1.7837154082957960E-03
              -2.3426936904838778E-03
              -1.8029135532726028E-03
               9.2633658566273515E-03
               9.0931063236744953E-03
               2.0312216275042835E-03
               1.9393010771152413E-03
              -7.7847041785892928E-04
              -2.9697107529617138E-03
               2.5768749097846264E-03
              -1.5669163384310709E-03
               1.8300144080897452E-04
              -8.7453556398180469E-04
              -4.0024266665333848E-03
               6.0590872170867786E-03
               4.4044272126783236E-03
              -2.4870593033703078E-03
              -3.7879687472840927E-03
              -2.6006740082765547E-03
               3.8294154317509662E-03
              -3.4778479706692187E-04
               3.1328529361327644E-03
               1.0785527231594634E-04
              -2.4352056933534135E-03
              -2.3751449549573858E-03
              -3.8915801815993961E-04
               2.0471821024985759E-03
               4.4894127453683937E-03
               9.8968549495207989E-04
               2.2760167609964990E-03
               1.2356783059422856E-03
              -3.7850807219262984E-03
              -2.7991991323178885E-03
              -9.3004843200580217E-04
               3.7649609972382220E-03
               3.3474420659163969E-03
              -6.0601399407651075E-04
               5.5725068470002879E-04
               3.7169308594983408E-03
               3.3524015090318237E-03
               3.0964902012205254E-03
               2.9541814041983546E-03
              -1.4946402834740281E-03
               4.6183043228348433E-04
               2.4155436271649598E-03
               4.7307719110582253E-03
              -8.4516123462143500E-04
              -1.8312717604897626E-04
              -1.1282886224414691E-03
              -1.1186250168650784E-03
              -1.8251731949754980E-03
              -5.3291244340314872E-03
               1.8963559430931790E-03
              -1.2004561883123186E-03
               2.8739652863719136E-03
               4.1718098587863132E-03
              -1.3733770066504405E-03
               2.7014915198166935E-03
              -1.6380914423591436E-03
               6.1240328271600928E-03
              -3.0813263803127562E-03
              -3.0473928801396581E-03
               3.4692947074458622E-03
              -3.8309494878904010E-03
               7.5736463538428143E-03
               2.8300986166431550E-03
               1.4482261003122324E-03
               3.3472937737594379E-03
               1.1692602646612284E-02
              -7.3326177178870274E-04
              -1.0569806097839212E-02
              -1.6679439477564363E-03
               1.4609543060538439E-03
              -5.2360223717236587E-03
               1.7387904537120699E-03
              -1.5581361156298775E-03
              -1.8009237935888366E-03
               4.4946969014861534E-03
               4.4291288990110512E-04
              -2.3751373274144400E-03
              -9.2704925887502731E-04
              -1.1893000494985785E-03
               2.5056757501469274E-03
               2.9913949745275690E-03
               6.3238180577722966E-04
              -2.5064680730146000E-03
              -2.0189135820776714E-03
               1.6851986869829337E-04
               6.7187288883906165E-03
              -1.5328698469718339E-03
               4.9315269257469169E-03
               1.5016229017737414E-04
              -1.6782282374083963E-03
               2.4391652343247073E-03
               6.6023900324720932E-04
              -5.9293648860933605E-03
               6.0288794333107350E-04
               7.6428879094891360E-03
               2.7898923281228782E-03
              -2.9125176071893532E-05
              -1.0751755985857320E-03
              -3.0589416071751803E-03
              -3.1823405890480647E-03
               1.0701046950262437E-03
               3.9653310047480378E-03
              -9.3883701873081040E-04
              -5.2755454272961667E-03
              -3.2782822310084736E-03
              -3.8133272679664377E-04
              -5.3431871416542293E-03
              -2.8143613541029185E-03
               1.6255390632568913E-03
              -1.1970150173389857E-04
               3.4117111590603209E-04
              -3.0804871144725571E-04
              -5.5666297929230519E-03
              -3.5821304810299617E-03
               4.8998967207595371E-03
              -4.8624515654856751E-03
               5.8805089081576307E-04
               1.9075352105353974E-03
               1.6169266472095237E-03
               7.2975339392022560E-03
               8.9158115532030372E-04
              -2.8300073095959256E-03
              -8.9410253253581853E-04
              -1.9382563725835085E-03
               1.1206243509711885E-03
               4.2884201046739338E-03
              -5.0172229004808878E-03
               1.0897520643370052E-03
               7.0419871392908987E-03
              -1.5265640326208667E-03
              -1.5102214580073356E-03
              -4.4886698449062915E-03
              -6.2681572721116365E-04
               1.4318679291220001E-03
               2.9495614274726921E-03
              -6.2784295839795842E-04
              -9.1691117996189192E-04
              -3.6993678661888311E-04
               1.4573709934140098E-03
               3.9403598109661233E-03
              -3.3858242524437586E-03
              -1.7401179500528498E-03
               2.9623441311394175E-03
              -5.3326116729299114E-04
               5.4109518971584255E-03
               3.3810185601240690E-03
              -1.0678531755469286E-04
              -8.7570606600844423E-04
               1.2140271446306797E-04
              -1.8956524872000020E-03
              -6.4047294821661218E-03
               6.3809863070775638E-03
               9.6937077792288713E-04
               2.4502097005274482E-04
              -2.4934575194792020E-03
               2.9333914395646794E-03
              -3.4691212459716015E-03
               9.0706702658637384E-04
              -1.8809381387402692E-03
              -2.5196123243856551E-03
               6.6217246658175416E-03
              -4.6577607934476725E-03
              -6.7132746425530910E-04
               1.5648830292797806E-03
               3.7765899431516960E-03
              -2.5807174650544760E-03
              -5.4683052292985707E-04
               5.7583058933380793E-04
               1.3188074243825562E-03
              -3.1428829486960120E-03
               5.0845798102415528E-05
               5.8816773080325492E-03
              -9.7177623318199687E-04
              -5.4991506321066641E-04
               5.8638795037573880E-03
              -8.3983823119546466E-04
              -5.0317317068269269E-04
              -3.9128925957524416E-03
               9.9084411749185723E-04
              -2.5625815387651388E-03
               8.6715672194545454E-05
               9.7158564066975365E-04
               3.4226625031454102E-03
               2.6768249955371969E-03
               1.1568917622084567E-03
              -6.6425990131591395E-03
              -2.1765878364280256E-03
               1.5835370725659436E-03
              -2.7244645229904682E-04
              -5.0483612252527382E-04
               1.2255466089710094E-03
              -3.6558441883249100E-03
              -2.8948140083071413E-03
               1.3470550432226249E-04
              -7.0458138903760842E-03
               5.0549633068332090E-03
               7.7442152871157674E-03
               5.9475486019843682E-03
               1.9433846057902440E-03
              -1.4985651973530132E-03
              -1.1282215350892208E-03
              -1.0395451612771174E-02
               4.6416736732627552E-03
              -2.7938941004278664E-03
              -5.1157763150634413E-03
              -4.0416274403675842E-05
              -1.5447672612593666E-03
               5.1499765326671210E-04
               1.2965926072509599E-03
               6.1795501405761271E-05
              -3.3639654290637246E-04
              -2.4758084317232100E-03
              -6.1242588556805026E-03
               2.7991586564000376E-03
               1.5721227586409760E-03
              -3.8185307895602723E-03
               5.1166705193890208E-03
               6.2030226782425688E-03
              -2.5329078134065414E-03
               2.9735634043885037E-04
              -2.2632188962361513E-03
               4.1349717892051711E-03
              -2.5617848777798012E-03
              -1.7427801845344608E-03
               1.2743490513539865E-04
              -3.6510402838447697E-03
              -7.8388007340645391E-04
               5.3849542663547429E-03
               6.7545255643869217E-03
               1.5419362616311202E-03
              -3.2627941576014860E-04
               2.1015843010798162E-04
              -5.3914910938395334E-03
               1.6084324732441569E-03
               2.2385237072820489E-04
               4.3690951712610813E-04
               2.4626217531182261E-03
              -2.5244248846958330E-03
               3.4350097974603384E-03
               2.6398326070832473E-03
              -1.0695823501269499E-03
              -1.0028277295895526E-03
              -7.8644889720371890E-04
               6.4806943438047854E-03
              -1.0910243634777816E-03
               1.2206375760807375E-03
               5.0739757925838784E-03
              -2.5506045768070684E-03
               6.8332202379883886E-03
              -4.8894946383250129E-03
              -1.6071457288716212E-03
              -1.2345195635442693E-03
               2.4952051649221454E-04
              -8.5312224376619191E-04
              -6.0225806893249596E-03
               2.6314951917801523E-03
              -3.1209222376095511E-04
               4.7062248168164150E-03
               3.9623323029840622E-03
               1.8058540397574829E-03
              -1.0748201897693315E-03
              -2.3633898495088127E-04
               2.4351091160243242E-03
              -2.0985768331842634E-04
               5.4184751106840512E-03
              -8.5354251506494436E-03
              -4.4758153755725602E-03
               1.0961562342992550E-02
              -4.8578149165812946E-03
               4.1603609172917973E-03
              -4.4553119205548927E-03
              -3.7404562897424810E-03
              -4.6016776101326321E-03
               2.7992164823139910E-03
              -2.7529033298568130E-03
              -3.9195619412815832E-04
               1.1586861610649259E-02
              -2.2308338496785343E-03
         &END THERMOSTAT_ENERGY
         &RNG_INIT
Wiener process for Thermostat # 1        1 F T T  -1.5505429657892764E+00         661802595.0        2026459976.0        3136775027.0        3268219721.0        1056216878.0        3744216088.0             12345.0             12345.0             12345.0             12345.0             12345.0             12345.0             12345.0             12345.0             12345.0             12345.0             12345.0             12345.0
Wiener process for Thermostat # 2        1 F T T   1.5766939834860993E-01        2521559082.0        1979391111.0        3972826820.0        2839528192.0        3960449033.0        3051881342.0        3692455944.0        1366884236.0        2968912127.0         335948734.0        4161675175.0         475798818.0        3692455944.0        1366884236.0        2968912127.0         335948734.0        4161675175.0         475798818.0
Wiener process for Thermostat # 3        1 F T T  -1.6802103653762466E+00        2464096834.0        3454226368.0         668358963.0        3607867155.0        2139338144.0        1695442074.0        1015873554.0        1310354410.0        2249465273.0         994084013.0        2912484720.0        3876682925.0        1015873554.0        1310354410.0        2249465273.0         994084013.0        2912484720.0        3876682925.0
Wiener process for Thermostat # 4        1 F T T  -9.2120442907176847E-01        3007810664.0         626544053.0           5688727.0        2019501767.0        4050809287.0        2188826537.0        2338701263.0        1119171942.0        2570676563.0         317077452.0        3194180850.0         618832124.0        2338701263.0        1119171942.0        2570676563.0         317077452.0        3194180850.0         618832124.0
Wiener process for Thermostat # 5        1 F T T   1.9586792436148486E+00        3119398129.0        2238966874.0        1731687009.0        1729823850.0        3912388439.0         182524877.0        1597262096.0        3906379055.0        3312112953.0        1016013135.0        4099474108.0         275305423.0        1597262096.0        3906379055.0        3312112953.0        1016013135.0        4099474108.0         275305423.0
Wiener process for Thermostat # 6        1 F T T  -2.2012851380256623E-01         527820745.0        2447393615.0         338698828.0         653439858.0         976211817.0        3944196308.0          97147054.0        3131372450.0         829345164.0        3691032523.0        3006063034.0        4259826321.0          97147054.0        3131372450.0         829345164.0        3691032523.0        3006063034.0        4259826321.0
Wiener process for Thermostat # 7        1 F T T  -1.2191095662093037E-02         167278661.0        2992638024.0        1197931920.0         124710794.0         889033703.0        2194094787.0         796079799.0        2105258207.0         955365076.0        2923159030.0        4116632677.0        3067683584.0         796079799.0        2105258207.0         955365076.0        2923159030.0        4116632677.0        3067683584.0
Wiener process for Thermostat # 8        1 F T T  -2.6373530393371375E-01        2923147749.0        3809475671.0         892364519.0        3114385888.0        3523415917.0        3402922821.0        3281794178.0        2616230133.0        1457051261.0        2762791137.0        2480527362.0        2282316169.0        3281794178.0        2616230133.0        1457051261.0        2762791137.0        2480527362.0        2282316169.0
Wiener process for Thermostat # 9        1 F T T  -1.2388913960989989E+00         276694386.0        3384434371.0        2194062143.0        3864498526.0        2498625561.0        4174179731.0        3777646647.0        1837464056.0        4204654757.0         664239048.0        4190510072.0        2959195122.0        3777646647.0        1837464056.0        4204654757.0         664239048.0        4190510072.0        2959195122.0
Wiener process for Thermostat # 10       1 F T T  -6.9271884074884071E-01         298842605.0        4183294382.0        3769908432.0        1623977651.0        3452521187.0         349927101.0        4215590817.0        3862461878.0        1087200967.0        1544910132.0         936383720.0        1611370123.0        4215590817.0        3862461878.0        1087200967.0        1544910132.0         936383720.0        1611370123.0
Wiener process for Thermostat # 11       1 F T T  -3.9199517781213300E-01        1183014876.0        2469777470.0        2706060047.0        1374668043.0         490283634.0         131761905.0        1683636369.0         362165168.0         814316280.0         869382050.0         980203903.0        2062101717.0        1683636369.0         362165168.0         814316280.0         869382050.0         980203903.0        2062101717.0
Wiener process for Thermostat # 12       1 F T T   1.2248374085476998E+00         744312290.0        1838623065.0        1895433531.0        2930723882.0        3034111406.0        1223209339.0         272317999.0         166758548.0         310112982.0         201045826.0        1680231254.0         118290799.0         272317999.0         166758548.0         310112982.0         201045826.0        1680231254.0         118290799.0
Wiener process for Thermostat # 13       1 F T T   1.6053528300026945E-02         341235087.0         365462780.0         607175623.0        3292057964.0        1611524565.0         256574977.0        2245755202.0        1652682525.0        2865544364.0         721509566.0         209733568.0         592362218.0        2245755202.0        1652682525.0        2865544364.0         721509566.0         209733568.0         592362218.0