 # Version information for this restart file 
 # current date 2023-11-30 19:57:06.734
 # current working dir /home/hv454/comp-lab-class-2023/Week12/Runs/Proton
 # Program compiled at                              Sat Dec 12 18:27:15 EST 2020
 # Program compiled on                                         cs001.nyu.cluster
 # Program compiled for                                                nyu-intel
 # Source code revision number                                       git:8c64c6e
 &GLOBAL
   PRINT_LEVEL  LOW
   PROJECT_NAME proton_aimd_1ns_every0.5fs
   RUN_TYPE  MD
   WALLTIME 21600
 &END GLOBAL
 &MOTION
   &GEO_OPT
     OPTIMIZER  BFGS
     MAX_ITER  100
     MAX_DR     3.0000000000000001E-03
     &BFGS
     &END BFGS
   &END GEO_OPT
   &MD
     ENSEMBLE  NVT
     STEPS  2000
     TIMESTEP     4.9999999999999994E-01
     STEP_START_VAL  1998
     TIME_START_VAL     9.9899999999998238E+02
     ECONS_START_VAL    -1.1180339613148931E+03
     TEMPERATURE     3.0000000000000000E+02
     &THERMOSTAT
       TYPE  GLE
       REGION  MASSIVE
       &GLE
         NDIM  5
         A_SCALE     1.0000000000000000E+00
         A_LIST     1.8595758612559999E+02    2.7263853498399998E-01    1.1526100454610001E+01   -3.6414578262600003E+01 \
             2.3173375816020001E+02
         A_LIST    -2.7809524712060002E-01    8.5951591808710006E-05    7.2189048017650004E-01   -1.9844539343859999E-01 \
             4.2409257583420001E-01
         A_LIST    -1.4825808131210000E+01   -7.2189048017650004E-01    1.3590902121280000E+00    5.1498896280349999E+00 \
            -9.9949268450990001E+00
         A_LIST    -1.0372189126880000E+01    1.9844539343859999E-01   -5.1498896280349999E+00    2.6661910891169999E+01 \
             1.1507715495310000E+01
         A_LIST     2.1801346360420001E+02   -4.2409257583420001E-01    9.9949268450990001E+00   -1.1507715495310000E+01 \
             3.0958394565589998E+02
         &THERMOSTAT_ENERGY
               9.9365392571243456E-03
              -8.4795582772930346E-04
               1.7830930786852335E-02
               1.8120217350350511E-03
              -6.2654088636291873E-03
               4.6192898950980672E-03
               1.4590422153023897E-03
               1.1696380697473311E-02
              -8.2693913925841541E-04
              -2.1520920635331041E-03
              -6.5452193889414135E-03
              -1.3403631247129199E-03
              -4.2346071459132793E-03
              -1.0547533494846875E-02
               3.7092634243862002E-03
               4.6429060805624374E-03
              -4.8195934139184599E-03
               2.0005577567656740E-03
               1.7539576645405307E-02
               5.0887851601084206E-03
              -8.2220441497383272E-03
              -3.4598849812579875E-03
              -5.2149891001946292E-03
              -1.5249923084204937E-04
               5.9842894059582655E-03
               1.1172887584267569E-03
              -5.9588651816792409E-03
               7.8714836957437997E-03
              -7.0699307267701040E-04
               3.7394530854946797E-03
               4.5602817426247753E-03
              -3.8806019916332360E-03
               7.0968552692593900E-03
               1.5191452032774463E-02
               1.1534850044701002E-03
              -4.7627631261800783E-03
               6.3936240022743193E-03
              -1.9285160106196755E-02
               4.2892135645679393E-03
               8.0645498434238870E-03
               2.8173837344979760E-03
               3.9503170631941210E-03
              -1.7280218798081771E-02
               1.2635996614304847E-02
               5.0306454499996402E-03
              -1.1111415942866441E-02
               6.2487895835420181E-05
              -2.4862899321488408E-03
              -3.4454735983231915E-03
              -7.1513427569682580E-04
              -4.2766178136917155E-03
               5.5111969865331593E-03
               3.9060074831552961E-04
              -7.7912774890615032E-03
              -9.5725793386390607E-03
              -5.3275100935854646E-03
              -5.7594072767673957E-03
               5.6294264190193469E-04
              -3.4383935698908429E-03
              -3.7044445459982959E-03
              -7.2486941807151919E-03
               1.4968488268166360E-04
               1.6265121957948419E-02
               2.1635381339172406E-03
               1.5690829442658510E-02
              -1.3831976960559217E-02
              -4.8048702351003803E-03
               1.2494922440740343E-03
               1.9097577043703873E-03
               7.8492071682314500E-03
              -1.0447899978283787E-03
              -5.2243606909595586E-03
              -2.5576896747984967E-03
               2.7269492203354363E-03
               5.0258542986807587E-03
              -4.0252213793492888E-03
               7.2101113698055351E-03
              -3.0528782131618900E-04
               6.0270868797650094E-04
              -2.5483017314080498E-03
               3.3473839973487646E-03
               5.2496908915691169E-04
               1.9850341354733458E-03
              -2.4090642055920302E-03
              -8.0002187486418307E-03
              -5.4097251473250322E-03
               1.2490537239819485E-02
              -1.0942568448816461E-02
              -2.3689679247440383E-03
              -9.6402834075649075E-04
               2.2425117585504533E-03
               3.7045709603941027E-03
              -3.7879605697856682E-03
              -2.0714606200394527E-03
               1.5065272277211071E-02
               5.5307227324731360E-03
              -5.3666231152775861E-03
              -4.2027950359226698E-03
               1.7637352418261062E-03
              -2.5810939909545224E-03
              -1.3970549072754091E-02
              -3.1815989649795827E-03
               5.2265630816439347E-03
              -3.1001323477850284E-03
              -7.6598764252824450E-03
               9.9319433649698950E-03
               2.5225685221032475E-02
               5.5589061161002524E-03
               1.6726812424541933E-03
               2.9267610198233027E-02
               4.0284039215452434E-02
               1.0926780164531786E-02
              -2.7318470580719833E-03
              -3.9704013602400775E-03
              -4.4659099672212646E-04
               5.0691405823275583E-03
              -5.5613626216877094E-03
               1.3406151552470861E-02
              -1.7523678299140961E-03
               8.2054792708633664E-03
               3.8944182784931333E-03
               3.5515708658779869E-03
               4.6957291462836814E-03
              -4.2229723742745195E-03
               1.8845014785311157E-02
              -9.8957149858799054E-03
               6.9120042530327894E-03
              -4.5358735100791970E-04
              -2.0562242009049689E-02
              -6.6939879771912188E-03
               3.9875697886188445E-03
               1.4157395696298869E-03
              -7.9714737792140090E-03
               2.7079169245208205E-04
              -5.0963552894875653E-03
               5.9029333270126478E-03
              -2.6960895597112320E-02
               1.4997213415725292E-02
              -4.6367488658194895E-03
               5.7704804861594718E-03
               1.9589888681583686E-05
               1.5653346377374353E-02
              -9.1732759600200373E-04
              -1.3479753774104982E-02
              -1.6802979167189339E-03
              -3.5679043625775433E-03
               1.2704130150518718E-04
               2.0337200462137517E-03
              -3.7959442578522182E-03
               5.1835147016077226E-03
              -3.1583459852191839E-03
               1.5454329569852257E-04
              -2.9569257725971516E-03
              -1.0343523475266157E-02
               1.0740333447926985E-02
              -9.4397322638282424E-04
              -9.6427114327406350E-03
               1.9093813037914214E-03
               2.5026401355056072E-03
               1.4895569079586935E-02
              -1.9745633946669245E-03
              -1.0352552196942285E-02
              -1.6040101055907103E-02
               6.6430370121424772E-03
               4.0204435456078561E-03
               1.5443739787916540E-03
               8.7651432013198267E-04
              -6.1854227746835650E-03
              -9.4801462425946528E-03
              -1.1049117916584188E-03
              -5.5841244386097021E-04
               5.8912420570104576E-03
               2.2633770542007898E-02
              -4.2440219292707720E-03
               3.7337282742643182E-03
              -8.5860895238848304E-04
               3.9307704914407389E-03
              -9.5502619706412575E-03
              -1.0043885116879711E-02
              -4.9691984503193055E-03
              -9.7932729149273674E-04
               7.8809984132307432E-03
              -1.1030532036780331E-03
              -4.5790026575109879E-03
              -9.5661817243149531E-04
               1.7192404391512275E-03
               8.7281080528993412E-03
               3.6056945041492545E-04
              -8.4588285225437199E-03
               3.5249615296769235E-03
              -7.8687642096515568E-03
               6.5555757559934685E-03
               2.2059004735784928E-04
              -1.0034549461211783E-03
               2.4544560858535424E-03
               3.9642684788251401E-03
              -7.5585338342298069E-03
               3.0569337826853661E-03
              -1.8157556808774504E-03
              -1.1041082537071653E-02
               6.9487792211929932E-03
              -3.2347985031840414E-03
              -5.6593781772792786E-03
               2.7584238536621132E-04
              -1.0487935460508542E-03
              -1.1115469937885019E-02
               1.2019732402045943E-03
               7.7848296584578786E-03
              -8.3653025102645440E-03
               1.7075230126717932E-02
              -3.0407618520538380E-03
               4.0614495869307505E-03
               3.0006322292400922E-03
               7.9542225772011761E-03
              -4.8015155106342806E-03
              -4.9381662368832933E-03
              -1.4006194087083900E-02
               1.4394684574370209E-02
              -6.9677959416288961E-03
               2.6946566696361544E-03
              -2.5450353424587542E-03
               3.6973754162706431E-03
              -8.4053374154849647E-03
              -1.3389983865901977E-03
               8.7832667567750277E-03
              -7.4302040319043491E-03
               6.3617495697785862E-03
               1.0308140202579091E-02
               5.8141738255669301E-04
               1.6973571687213161E-02
              -5.6480960958343969E-03
               2.4591505749002839E-03
               8.4477001793650634E-03
               1.0519277963346942E-03
               5.1855273474888386E-03
              -6.4661416132462029E-03
              -2.0439313170151079E-03
               3.3452568371934539E-03
               6.3750171506318024E-03
               8.2927302018265595E-04
               8.4316075747434202E-03
               5.2212698080260807E-03
              -7.4092613445215644E-03
              -8.0596065506429605E-03
               3.8582720189642415E-03
              -6.8966117028846710E-03
              -3.4011322639827058E-03
               2.7722220865187023E-03
              -3.9073720009050383E-03
              -4.8850338553389858E-03
               1.6132036760157367E-02
              -9.6866019847449900E-03
              -3.2637142054510633E-03
              -8.1764475251256841E-03
               2.1262374995076258E-03
              -8.2374410167128011E-03
               2.7066229136834320E-03
               6.6741668650082539E-03
               1.9761214850152684E-03
              -7.6593029708316215E-03
               9.3105631966525857E-03
               5.2828984512283588E-03
              -2.6475504514426383E-03
               8.5714395159546528E-04
               1.0061580313220884E-02
               9.3020546106662421E-03
               1.1694036156308950E-02
              -3.5899225904232903E-03
               7.8644858368890173E-03
              -6.1301277763378135E-03
              -1.8099161914850055E-03
              -5.0406924305621036E-03
               1.0016348151507624E-02
               3.1109346672117259E-04
               4.4613649268646534E-03
              -5.3015961036126606E-03
              -1.4085187213233824E-02
               8.2493813323604882E-03
              -1.5263966845909182E-03
               2.2985644598265863E-02
              -2.0388311692866350E-02
              -5.4732009316647663E-03
               3.3330618593906455E-03
              -3.2360065721896251E-03
               1.8802395678239299E-03
              -1.3321567486922878E-02
              -2.2880258526241271E-03
              -3.3390311559991087E-03
              -1.6291977032878217E-02
              -1.1619888436138791E-03
               1.8446947853222005E-02
              -7.2543843482931363E-04
               1.1374213317359048E-03
              -1.8877838049613101E-03
              -8.2873981457193251E-03
               1.0907479507581128E-02
              -1.3812425402452665E-02
               1.1270555935448328E-02
               9.9654549562502902E-04
              -1.2529271614937514E-02
               7.4311407310465689E-04
               1.4209768769755705E-02
               1.0617420196314063E-02
               1.0086643896904893E-02
               9.6386846176696565E-03
              -1.9263962861509578E-02
              -7.3337367259623037E-03
               7.3909950308927008E-03
               5.8693824224092181E-03
               2.5185293070680509E-03
               1.1721078623169187E-03
              -3.1144455692975678E-03
               3.3545488587509598E-03
               1.7896824699664843E-03
               7.4932858143194926E-03
              -9.5222824342359007E-03
              -1.3174198604307423E-04
              -3.7463058363605136E-04
              -1.8697073430188824E-02
              -6.1476060407160043E-03
               2.8074565816974990E-03
               4.2166655146139631E-03
               1.0410693696914616E-03
               7.0531111867095800E-03
              -1.2898468736978277E-02
               1.5506396031274856E-02
              -1.8577089866422120E-03
              -1.3995825667790882E-03
              -3.4594423921803625E-03
               3.2920127726517637E-03
              -6.6092358417619377E-03
               2.3186509756153457E-03
               1.5009563326444130E-02
              -1.6782815860016654E-03
               8.0976757429317443E-03
              -8.3674688253929340E-03
               1.9728817101759711E-03
               6.6628153223180714E-04
               4.1917188350119143E-03
              -9.5363622918785227E-03
              -4.3070213510511025E-03
              -7.6715548113387888E-04
              -1.5899932211003542E-03
               1.2928547968833269E-02
               1.0141383749438185E-02
               4.4588763551132379E-03
               5.3459779727883586E-03
              -5.5035879460892416E-03
               1.3164781387518320E-02
               2.5416717373802893E-03
              -8.8599035433871084E-03
              -2.8398205667294189E-03
              -7.3861342541844564E-03
               7.4456259493096985E-03
              -8.2419834491544034E-04
              -2.8384664263470861E-03
              -7.1390543998328887E-04
               5.2398137412159995E-03
              -9.0462115958559984E-03
               2.3217823246604744E-03
               3.2828656109558959E-03
               3.6443799847392482E-03
               8.2528905460916169E-03
               4.3182845179179762E-03
              -5.4526252394704897E-04
               4.4945128029414546E-03
               1.8043053964475728E-02
              -3.0059594996873188E-03
              -2.0788732166149865E-02
              -1.0358498820588350E-02
               1.3764962810418849E-03
               3.8339547484332799E-03
               3.3757138556332333E-03
               1.9448025458469148E-03
               1.8392486364800741E-03
               8.3787320840877488E-03
              -6.9092752504900882E-03
              -1.1874942319762162E-02
              -3.1242598116382799E-03
               4.8143541252659346E-03
               1.1036184433020419E-02
               9.8517820161228981E-03
               1.9454541678891619E-03
               4.6002346081567582E-04
              -1.2127782206446936E-02
              -8.7074413000625735E-03
               1.1228241455120922E-02
               2.9393932810962216E-03
               5.3102460140770739E-03
              -1.5795103405585648E-03
              -4.7513679747555430E-03
               6.7622905244042793E-03
               4.1279044315876076E-03
              -1.9661306889248312E-03
               9.8812042364915583E-03
               3.8865680750578562E-03
               2.8158631800371211E-03
              -1.0853048988661585E-02
               4.5365559688595215E-03
              -1.1655084174403132E-03
              -4.0852846753386789E-03
              -2.7935938990785196E-03
              -5.4760886077676301E-03
              -4.8904187417204478E-03
              -4.2123508874508898E-03
              -1.4085915983793530E-02
               1.0261084221850521E-02
              -7.7821638409249641E-03
              -4.0174062786721663E-03
               4.0610638214096670E-03
              -2.9392754577138441E-03
               6.1678829055889037E-04
              -5.0279501304264524E-03
               3.8990327588574731E-03
              -1.5533010905662173E-03
               1.1140014159117435E-02
              -9.4601591802542344E-03
              -3.5231091434632733E-03
               4.1063939285792986E-04
               5.1425842739576404E-04
               1.3182194250461856E-02
               9.4889803333171388E-03
              -4.8565525919672340E-03
               1.4037792825987486E-03
               5.0328942726030265E-03
              -9.6089464095226989E-03
               4.0183148452710002E-03
               3.2822384644714681E-03
               1.8350421649523186E-03
              -2.2036807894606591E-03
              -2.5063262529032128E-03
              -5.5520122378842525E-03
              -1.2104491962696298E-02
               8.3051687976592112E-03
               1.6423980957746113E-02
               2.7564183020929002E-03
              -2.2611634199788703E-03
              -2.5105344203017791E-03
               2.1626458772374861E-03
              -5.8868731894564461E-03
               5.7671549132520469E-03
               1.3193226201848600E-03
              -3.5724354536437624E-03
               1.9877544102217329E-03
               3.1445067483469352E-03
               5.2925058359931301E-03
               5.4894700347084182E-04
               1.4585902736379941E-02
               5.7875036772789693E-03
              -1.0146553105721677E-02
              -4.3731040674880014E-03
              -1.1092112673216855E-02
               9.8320027898591809E-03
               2.3932388664738213E-03
               9.6218682493841631E-03
              -2.6670983325442869E-03
              -6.3104785129046324E-03
              -1.1242787392436568E-02
              -1.0951293795101805E-02
              -7.7138024445834886E-03
               1.9994136639091119E-02
               6.2026988871077297E-03
              -2.2841753142192425E-03
               5.6901343836192695E-03
               1.2488325466451225E-04
               1.0340249281868314E-03
              -9.7474043635830798E-03
               3.1285439172482922E-03
               8.2211133212374589E-03
              -1.0356750766357755E-02
               3.1881381267807101E-03
              -3.1557711859744562E-03
               5.1910038308459446E-03
              -6.1520302439947944E-04
               2.1171621135206904E-03
               1.7850969800556206E-02
              -1.4796942667942357E-03
               1.9479200492755445E-03
               5.4899390017515166E-04
              -3.1408445884195182E-03
              -4.7565070331069912E-03
              -4.3652417560475706E-03
               4.3680487374151188E-03
               9.8819041804155336E-03
              -3.2155475946572601E-03
              -7.3045041839925147E-03
              -4.1453808839913417E-03
               4.1742506062795422E-03
               4.0320522343010919E-03
               9.0818956928070873E-04
               1.5119974134091760E-03
               5.2423777838239045E-03
               1.9774153738277157E-02
              -1.1286570661257692E-02
              -1.1967541290162585E-02
              -1.2371582119028442E-02
              -4.5570423122175206E-04
               8.9982281945716141E-04
               1.2234587342132711E-03
               2.6066020770013458E-03
              -4.9170385076755907E-04
              -3.8052160024683191E-03
              -1.3229695132654283E-02
               1.4928026509479411E-02
               9.7592935861973602E-03
              -8.5367273241146249E-03
              -7.1119495183823789E-03
               2.3831998279490122E-03
               6.2399108070584344E-03
              -1.8732068696138842E-03
              -1.5950138169807677E-02
               5.8145512872063770E-03
               3.8713236927256757E-03
              -4.9578951443364598E-03
               1.2667868092853217E-02
              -1.8488086460104119E-02
              -8.3448455247841953E-03
               4.4406425326118772E-03
               1.4206066278452355E-03
               3.1405806514142387E-04
              -1.1137842887939235E-02
               4.2987808996568268E-03
               5.2939374698305359E-03
               3.5391516029765731E-03
               6.5187275564277825E-03
              -2.5489138851419514E-04
              -7.0677414717766713E-03
              -2.3577604312479618E-03
               4.0727954170693761E-03
              -3.2621839349697025E-03
               1.4874454878895233E-02
               3.1251200383527931E-03
              -8.9709203021418153E-03
              -6.9716044979568816E-03
              -2.1545002475503597E-03
               3.7192322138197094E-04
               4.4959733780684605E-03
               2.9807406157123626E-03
              -1.8231061275473884E-03
               4.2045754429402091E-03
               1.0394883316232135E-02
               1.6628647508642805E-03
               3.2878198711168004E-04
              -1.6180207597620301E-04
               8.8312771125221099E-03
              -9.5201794395477282E-03
               2.3490273889258855E-06
              -2.7503005620114031E-04
               4.5876962374013100E-03
               1.1576561812248854E-02
               2.8940268609563974E-03
              -7.4614569408364096E-03
               2.0993179199245304E-04
              -4.8257261565346141E-03
               1.8886948327177244E-03
              -2.7996157494241600E-03
               4.1209411339558728E-03
               2.6881969331721215E-03
               1.0418919895266667E-02
               1.8307339403446669E-04
              -3.7258361447682613E-03
               2.8383897947620710E-03
              -6.0960828701656436E-04
              -2.9624067109835362E-04
               9.5709599826165328E-05
              -2.4842282114102524E-03
               1.0678046453208759E-02
              -7.0600900924057733E-04
              -1.1191070329669294E-03
               5.5403017144478890E-03
              -7.6331013551126032E-03
              -4.4158270309804592E-04
              -5.8826837660811019E-03
              -1.0654807504787351E-02
               2.9818143932844546E-03
               1.2525561353938813E-02
               1.6602404171838944E-02
               1.7752127570652078E-03
              -2.0204853126318695E-04
         &END THERMOSTAT_ENERGY
         &RNG_INIT
Wiener process for Thermostat # 1        1 F T T  -1.5601997779545997E+00        4027757407.0        1559045809.0        3403552754.0        1703120254.0         453778739.0        2861026355.0             12345.0             12345.0             12345.0             12345.0             12345.0             12345.0             12345.0             12345.0             12345.0             12345.0             12345.0             12345.0
Wiener process for Thermostat # 2        1 F T T  -4.0112764818655514E-02        3838101567.0        1430396723.0        1556923290.0        2889325561.0         607612135.0        3761282217.0        3692455944.0        1366884236.0        2968912127.0         335948734.0        4161675175.0         475798818.0        3692455944.0        1366884236.0        2968912127.0         335948734.0        4161675175.0         475798818.0
Wiener process for Thermostat # 3        1 F T T  -2.7485675335982579E-01         482699311.0        2506409672.0        1202736307.0        1073196783.0        1141297417.0        2856513754.0        1015873554.0        1310354410.0        2249465273.0         994084013.0        2912484720.0        3876682925.0        1015873554.0        1310354410.0        2249465273.0         994084013.0        2912484720.0        3876682925.0
Wiener process for Thermostat # 4        1 F T T  -9.8957058820594379E-01        3129827523.0        3549124345.0        1353678049.0        1344233659.0        2578763699.0        1106953444.0        2338701263.0        1119171942.0        2570676563.0         317077452.0        3194180850.0         618832124.0        2338701263.0        1119171942.0        2570676563.0         317077452.0        3194180850.0         618832124.0
Wiener process for Thermostat # 5        1 F T T   8.1743834600370391E-01         587879607.0         702838090.0         820286405.0        1159088393.0        1840431053.0        2379049004.0        1597262096.0        3906379055.0        3312112953.0        1016013135.0        4099474108.0         275305423.0        1597262096.0        3906379055.0        3312112953.0        1016013135.0        4099474108.0         275305423.0
Wiener process for Thermostat # 6        1 F T T  -4.6635220676026440E-01        1255338812.0        2941627828.0        2767710176.0        1701464963.0        2824905014.0        2257709657.0          97147054.0        3131372450.0         829345164.0        3691032523.0        3006063034.0        4259826321.0          97147054.0        3131372450.0         829345164.0        3691032523.0        3006063034.0        4259826321.0
Wiener process for Thermostat # 7        1 F T T  -2.7221417990508723E-01        2928923925.0        1475590831.0        3028549759.0        1729569924.0         123262326.0        1965188850.0         796079799.0        2105258207.0         955365076.0        2923159030.0        4116632677.0        3067683584.0         796079799.0        2105258207.0         955365076.0        2923159030.0        4116632677.0        3067683584.0
Wiener process for Thermostat # 8        1 F T T  -1.3371509559371584E+00        3293786404.0        2324351260.0        4224364702.0        1341956089.0         912321799.0        2697559406.0        3281794178.0        2616230133.0        1457051261.0        2762791137.0        2480527362.0        2282316169.0        3281794178.0        2616230133.0        1457051261.0        2762791137.0        2480527362.0        2282316169.0
Wiener process for Thermostat # 9        1 F T T  -8.7225140957356684E-01         657961678.0        1513147170.0        2219186603.0        4111646695.0         616753226.0        2747528653.0        3777646647.0        1837464056.0        4204654757.0         664239048.0        4190510072.0        2959195122.0        3777646647.0        1837464056.0        4204654757.0         664239048.0        4190510072.0        2959195122.0
Wiener process for Thermostat # 10       1 F T T  -6.2889449580622436E-01          96284293.0        2446379684.0        3801610533.0        2961863039.0        1877110468.0         129512113.0        4215590817.0        3862461878.0        1087200967.0        1544910132.0         936383720.0        1611370123.0        4215590817.0        3862461878.0        1087200967.0        1544910132.0         936383720.0        1611370123.0
Wiener process for Thermostat # 11       1 F T T   5.7191327297384098E-01         909895394.0        1862319182.0        2400367466.0        1201802882.0        2818881371.0          83822050.0        1683636369.0         362165168.0         814316280.0         869382050.0         980203903.0        2062101717.0        1683636369.0         362165168.0         814316280.0         869382050.0         980203903.0        2062101717.0
Wiener process for Thermostat # 12       1 F T T  -2.0098512161557830E-01        4281566709.0        2729512869.0         275332126.0         437149450.0        1041778670.0        1778805263.0         272317999.0         166758548.0         310112982.0         201045826.0        1680231254.0         118290799.0         272317999.0         166758548.0         310112982.0         201045826.0        1680231254.0         118290799.0
Wiener process for Thermostat # 13       1 F T T   9.4560796151122029E-01        3557498645.0        2583014714.0        2425630516.0         920535172.0        3770643442.0         978988578.0        2245755202.0        1652682525.0        2865544364.0         721509566.0         209733568.0         592362218.0        2245755202.0        1652682525.0        2865544364.0         721509566.0         209733568.0         592362218.0