 # Version information for this restart file 
 # current date 2023-11-30 19:57:25.551
 # current working dir /home/hv454/comp-lab-class-2023/Week12/Runs/Proton
 # Program compiled at                              Sat Dec 12 18:27:15 EST 2020
 # Program compiled on                                         cs001.nyu.cluster
 # Program compiled for                                                nyu-intel
 # Source code revision number                                       git:8c64c6e
 &GLOBAL
   PRINT_LEVEL  LOW
   PROJECT_NAME proton_aimd_1ns_every0.5fs
   RUN_TYPE  MD
   WALLTIME 21600
 &END GLOBAL
 &MOTION
   &GEO_OPT
     OPTIMIZER  BFGS
     MAX_ITER  100
     MAX_DR     3.0000000000000001E-03
     &BFGS
     &END BFGS
   &END GEO_OPT
   &MD
     ENSEMBLE  NVT
     STEPS  2000
     TIMESTEP     4.9999999999999994E-01
     STEP_START_VAL  2000
     TIME_START_VAL     9.9999999999998226E+02
     ECONS_START_VAL    -1.1180339613148931E+03
     TEMPERATURE     3.0000000000000000E+02
     &THERMOSTAT
       TYPE  GLE
       REGION  MASSIVE
       &GLE
         NDIM  5
         A_SCALE     1.0000000000000000E+00
         A_LIST     1.8595758612559999E+02    2.7263853498399998E-01    1.1526100454610001E+01   -3.6414578262600003E+01 \
             2.3173375816020001E+02
         A_LIST    -2.7809524712060002E-01    8.5951591808710006E-05    7.2189048017650004E-01   -1.9844539343859999E-01 \
             4.2409257583420001E-01
         A_LIST    -1.4825808131210000E+01   -7.2189048017650004E-01    1.3590902121280000E+00    5.1498896280349999E+00 \
            -9.9949268450990001E+00
         A_LIST    -1.0372189126880000E+01    1.9844539343859999E-01   -5.1498896280349999E+00    2.6661910891169999E+01 \
             1.1507715495310000E+01
         A_LIST     2.1801346360420001E+02   -4.2409257583420001E-01    9.9949268450990001E+00   -1.1507715495310000E+01 \
             3.0958394565589998E+02
         &THERMOSTAT_ENERGY
               9.8613185349299103E-03
              -8.8251336989511879E-04
               1.7900594896028247E-02
               2.2989383893049211E-03
              -6.0109718891157181E-03
               4.7789221361240015E-03
               6.1597412009968718E-04
               1.1742362338013328E-02
              -1.4301864229244699E-03
              -2.3372427064839180E-03
              -6.8319456101210534E-03
              -1.1919643472376288E-03
              -3.9452206275737050E-03
              -1.0541698523575055E-02
               3.7996486196565484E-03
               4.7291772626554618E-03
              -4.8614373485719783E-03
               1.9168167242047686E-03
               1.7987986839667010E-02
               5.3290269720448619E-03
              -8.2342392235943591E-03
              -3.5124042104417736E-03
              -4.3864699325149295E-03
              -7.3308527126347259E-04
               5.8451313143144520E-03
               1.7841574998568176E-04
              -5.9262009034278546E-03
               8.8534816502036026E-03
              -7.3677597182986870E-04
               3.5496988256284051E-03
               4.9340557627571401E-03
              -3.5388496536202995E-03
               7.0851935715321290E-03
               1.5835246828736185E-02
               2.2960705590208629E-03
              -4.9887978622629682E-03
               6.4810762834810283E-03
              -1.8952202619720682E-02
               4.3101625935969695E-03
               8.0695634072078994E-03
               2.8699864145114041E-03
               2.8990201393718725E-03
              -1.7515733122111663E-02
               1.2697763433843977E-02
               5.0744398888339527E-03
              -1.1422445322161051E-02
              -1.4131662873197035E-04
              -2.4334936915349405E-03
              -4.8349281873120414E-03
              -1.0636893488211192E-03
              -3.5764223732791057E-03
               5.6304000964056992E-03
               7.8635358251566651E-04
              -8.0514506146646229E-03
              -9.3068603206639868E-03
              -4.7504911661416802E-03
              -6.5440237370643474E-03
               6.0945851174984249E-04
              -3.5358526242812147E-03
              -3.7146127653539061E-03
              -7.4082451311534110E-03
               1.3959103553493865E-04
               1.6869947566888647E-02
               1.7057597139600871E-03
               1.5329025939440017E-02
              -1.4659735238470032E-02
              -4.9179318447726706E-03
               1.4891323050146915E-03
               1.6582033521793178E-03
               8.3128828893508835E-03
              -1.1457614574115645E-03
              -5.2853344434433932E-03
              -2.5536254518099140E-03
               2.6137794397381592E-03
               5.1149339217377437E-03
              -5.6191690521512324E-03
               7.0630628423760068E-03
              -9.9721563761692202E-04
               6.5191676060353913E-04
              -2.4949819607090759E-03
               3.2257186526770676E-03
               6.5591455814699982E-04
               1.8947446147065392E-03
              -2.0668781364071472E-03
              -8.1955094317793086E-03
              -4.8687718925105655E-03
               1.2862515486088279E-02
              -1.1073856394054844E-02
              -1.6858574505018943E-03
              -3.3297531744256540E-06
               2.3198266113994156E-03
               3.7448656704063207E-03
              -3.0784879351455382E-03
               5.3487718238232301E-05
               1.5058763291194759E-02
               5.5532256493571047E-03
              -5.6145746604047038E-03
              -3.7558778096560869E-03
               2.6132738700537740E-03
              -1.1944668466218641E-03
              -1.2697723748896942E-02
              -2.2487698123016568E-03
               5.5875462901753045E-03
              -3.3786173272158321E-03
              -7.5374609979701876E-03
               1.0159094978048473E-02
               2.5402931397529326E-02
               5.5093025426365665E-03
               1.7903380117580982E-03
               2.9386137263149710E-02
               4.0486159809893743E-02
               1.0831685710559216E-02
              -2.7311671128301181E-03
              -3.9624025236564449E-03
              -6.8923268297523162E-04
               5.4621700452955344E-03
              -5.4899090069498013E-03
               1.2963581690836218E-02
              -1.7199060003464074E-03
               8.4405729280566440E-03
               3.9161438599852336E-03
               3.6937900313809046E-03
               4.7520047493540491E-03
              -4.2600317731917598E-03
               1.8078480143057844E-02
              -9.8346521688826676E-03
               6.6311466869979742E-03
              -4.0287535025990064E-04
              -2.0773159504044819E-02
              -6.2287435048002781E-03
               4.0026425306564431E-03
               1.1605840828580417E-03
              -8.8323790704419817E-03
               1.0882113971139051E-03
              -4.8117267907648751E-03
               9.1335305839528279E-03
              -2.6975306921406580E-02
               1.4703813640235720E-02
              -4.4000641533062579E-03
               4.8426827710892160E-03
              -3.6974850023079194E-04
               1.5296165671869462E-02
              -9.0421653921588245E-04
              -1.3329118477112534E-02
              -1.5180251398138754E-03
              -3.9320847084787598E-03
               3.4112934406240359E-05
               2.4851268956316338E-03
              -3.7329602315716837E-03
               5.5503967588872282E-03
              -2.6752390411099785E-03
               1.4571365594592516E-04
              -3.0574957667024471E-03
              -9.7818272335008349E-03
               1.0698218743999215E-02
              -1.7154633205361896E-03
              -9.1139123008254531E-03
               3.1131002293514811E-03
               3.0302049094462517E-03
               1.4152129240609849E-02
              -2.1943909264435487E-03
              -1.0286285477607114E-02
              -1.6124856241462295E-02
               6.7481486507267301E-03
               5.0001768697510033E-03
               1.4512299923408994E-03
               2.2577019335036369E-04
              -5.9551888914289933E-03
              -9.4716127282998032E-03
              -8.3076483712420785E-04
              -1.5059138122949234E-03
               5.7416792589413800E-03
               2.1204091267645556E-02
              -4.1552310655272491E-03
               3.2847023165294537E-03
              -9.3395564333772303E-04
               3.6510954981388019E-03
              -9.4843101844124152E-03
              -9.4190397421473390E-03
              -4.9808195679870836E-03
              -7.4535789962459225E-04
               7.9196411333762960E-03
              -1.0527424137482004E-03
              -4.5449591314182698E-03
              -1.1216505717402409E-03
               2.5473617881559135E-03
               8.2375501912386774E-03
               9.2240172360386692E-04
              -8.3316348178876318E-03
               4.2768542315524197E-03
              -7.9560179933582924E-03
               6.5457597330697758E-03
               1.8943299424549194E-04
              -1.3234354494780502E-04
               3.0981549601452303E-03
               4.1473406589789515E-03
              -7.4202181454308810E-03
               3.5232179849911398E-03
              -1.6502867590590629E-03
              -1.1156225995173671E-02
               8.4386470694556813E-03
              -3.3338160505951269E-03
              -5.7439998719336863E-03
               1.5937444182241952E-04
              -6.8116831256070215E-04
              -1.0931713271863220E-02
               1.0666224441367481E-03
               7.2678532608526610E-03
              -8.3430252429421408E-03
               1.7068094731640726E-02
              -2.9908878366458240E-03
               4.2293073252262451E-03
               3.6449331438326285E-03
               7.9819134291973983E-03
              -4.3839145202239872E-03
              -5.9648180076260441E-03
              -1.4048265227613597E-02
               1.4530404805780201E-02
              -7.3382237944584145E-03
               2.6916859706099120E-03
              -2.6162667396992280E-03
               4.3492712098728474E-03
              -7.9519736378562134E-03
              -1.3707054637378891E-03
               8.9352335816795907E-03
              -7.4083876559168328E-03
               6.4213543901238982E-03
               1.0305839900192947E-02
               3.2278807117456024E-04
               1.6513789517950409E-02
              -4.7066997472946072E-03
               2.4679911003910550E-03
               8.3745564299850337E-03
               4.6228806583144147E-04
               3.0656442375869954E-03
              -5.6122083788006580E-03
              -1.9989163804543667E-03
               3.3548436157277389E-03
               6.6955873581981320E-03
               7.6372497753214304E-04
               8.2995118565549978E-03
               5.1730571441951281E-03
              -7.5866131444541646E-03
              -7.7616157350003578E-03
               3.5776696959573567E-03
              -6.8527841157706281E-03
              -2.9201108405386843E-03
               1.9807483242999932E-03
              -3.6108132196711398E-03
              -4.9105891306394150E-03
               1.6191118921838787E-02
              -9.6930034661801990E-03
              -2.8422504920987330E-03
              -8.2635656999189098E-03
               2.7888214727339517E-03
              -8.2246155872290842E-03
               2.8199703497561878E-03
               6.9713503610898892E-03
               2.1216548405907916E-03
              -9.2172787149643748E-03
               9.0399547694999527E-03
               5.2499388593319554E-03
              -1.6802880584015903E-03
               7.4942797149466162E-05
               9.8007334908351579E-03
               9.1801785843445127E-03
               1.2241011514627106E-02
              -3.5559033191773872E-03
               7.9434106618475765E-03
              -6.2125885541801399E-03
              -1.0395063814910108E-03
              -5.0481516896384148E-03
               9.9763503234267699E-03
               4.0775628777708071E-04
               4.7871028216903855E-03
              -5.2757485425702797E-03
              -1.4202016025596590E-02
               8.1050645412259550E-03
              -1.6207548415443842E-03
               2.2731665132330953E-02
              -2.0814723573003131E-02
              -6.0861903283961315E-03
               3.7054653715553275E-03
              -4.1429353756903672E-03
               3.2752569724029254E-03
              -1.2861103273510354E-02
              -3.4007320127655925E-03
              -3.2868915790561768E-03
              -1.6313223373672532E-02
              -1.3065214836568803E-03
               1.8584363147927097E-02
              -9.7592622038424005E-04
               7.2386684020716912E-04
              -8.9474301637653005E-04
              -8.8018578511537167E-03
               1.0774063821964155E-02
              -1.3928496752153205E-02
               1.1016722970167611E-02
               1.5620326149508976E-03
              -1.2526327655700054E-02
               1.9350534314940436E-03
               1.4506131470903147E-02
               1.0671906532707855E-02
               1.0075300379852084E-02
               9.6328482086249310E-03
              -1.9240031869114160E-02
              -7.1762233929742285E-03
               7.3862864102562670E-03
               5.7852848373374718E-03
               1.8979541873600831E-03
               7.0241348856150553E-04
              -3.1003851715814910E-03
               4.7046371803107570E-03
               1.2327110203123640E-03
               6.9385871223615440E-03
              -9.8444129684425452E-03
              -2.8096456684104662E-04
              -4.3311680082769918E-04
              -1.8712977220907732E-02
              -6.2484083952042760E-03
               2.7592384195564575E-03
               3.9013457264488621E-03
               9.8496089233518990E-04
               7.0210055022734540E-03
              -1.2280335953989417E-02
               1.5403960126606496E-02
              -1.9462279036126114E-03
              -1.4338262695584125E-03
              -3.2053415369065535E-03
               3.1250652439906539E-03
              -6.0014962330140371E-03
               1.5920922791897202E-03
               1.3485061818842332E-02
              -9.0635844610378359E-04
               8.0376791613595323E-03
              -8.2817772691605018E-03
               2.0666732846933034E-03
              -1.2926459048889685E-03
               4.4218706173496406E-03
              -1.0574014860636990E-02
              -4.3063675440214427E-03
              -1.3899488032210387E-04
              -3.1337463166628090E-03
               1.3818342143161829E-02
               1.0169728521726980E-02
               4.2627808566596467E-03
               6.5756499555909894E-03
              -4.8301304356831165E-03
               1.3131524274411813E-02
               2.7660108169902599E-03
              -8.8265295843195733E-03
              -2.7686172089840268E-03
              -8.0750388669471665E-03
               7.1667805001843620E-03
              -5.3310631878352062E-04
              -2.7149283014039466E-03
              -5.7911471188097836E-04
               5.0860760062285707E-03
              -8.9243960499065435E-03
               2.2545888864525525E-03
               3.0073750548413099E-03
               3.5857477529381621E-03
               1.0131836508193283E-02
               3.4197584992434341E-03
              -6.9930031473448015E-04
               4.4749835538783695E-03
               1.8001769121529815E-02
              -2.8537384152038051E-03
              -2.0295764131208000E-02
              -1.0382161112959106E-02
               1.1345760791104868E-03
               3.7202451497591301E-03
               3.4379923133584702E-03
               2.3329605280880397E-03
               1.6263208898998870E-03
               8.4211997977245122E-03
              -6.8330423377301920E-03
              -1.1769819029897103E-02
              -3.0469773687016527E-03
               4.8598421896335281E-03
               1.1036045212392109E-02
               9.8745686960182762E-03
               1.8249192364620515E-03
               5.5516329104311074E-04
              -1.1862085490303560E-02
              -8.6338127140289309E-03
               1.1202103364482779E-02
               3.2702692128418693E-03
               4.8764212527292426E-03
              -1.5132318207658911E-03
              -4.8290132871331038E-03
               6.7439249219337230E-03
               3.4950790506407150E-03
              -2.5118181933766384E-03
               1.0027933086989443E-02
               3.7526866569742930E-03
               2.7815928669760381E-03
              -1.0777356170355374E-02
               4.8469925028629115E-03
              -1.4628393617125651E-03
              -4.3944700720545023E-03
              -2.6388875336098203E-03
              -5.5457874510601154E-03
              -4.8267982646226322E-03
              -3.9362146560762657E-03
              -1.3271069139677271E-02
               9.0138649461066079E-03
              -7.8224241339726070E-03
              -4.4717000699415008E-03
               4.0911384089713865E-03
              -2.3208156235081981E-03
               7.2260772219531570E-04
              -4.2750696921723935E-03
               4.7191599231876206E-03
              -1.4496816355303614E-03
               1.1064956855592854E-02
              -8.8259851189350213E-03
              -3.5150107396487592E-03
               8.6296234918097775E-04
               5.6165029574610514E-04
               1.3048922311908758E-02
               9.5029913456812932E-03
              -5.1446508224991701E-03
               1.4383318872886607E-03
               4.9634712581613782E-03
              -1.0557682552767383E-02
               3.8962624053728340E-03
               2.5583765866406087E-03
               1.1741632891174739E-03
              -2.3367803159575120E-03
              -2.5788832089063810E-03
              -5.7062280346626987E-03
              -1.1608323871254921E-02
               8.1954954090080190E-03
               1.6030103735525752E-02
               2.9162528215315054E-03
              -2.0957145715079046E-03
              -3.2749334444492758E-03
               1.8698097462128164E-03
              -5.7696736721623417E-03
               5.3951859180183422E-03
               1.2993363677064277E-03
              -3.8661256448514138E-03
               1.1956258988606210E-03
               3.1510956800680019E-03
               5.1236559362156896E-03
               6.8762186667948948E-04
               1.4317606459268797E-02
               6.1179216114594041E-03
              -1.0019966256195169E-02
              -4.3034012977061836E-03
              -1.1078995923448558E-02
               9.7126906236156794E-03
               2.3197945526208983E-03
               9.2550673116666409E-03
              -2.6725224344094807E-03
              -6.3141721121777279E-03
              -1.0738731682207001E-02
              -1.0615061681507734E-02
              -7.4836908336684774E-03
               1.9957702233616162E-02
               6.2352547969529793E-03
              -2.1976104156647839E-03
               5.8598103751119996E-03
              -3.1380917868223390E-05
               1.0599643855350050E-03
              -9.7188488417532613E-03
               4.0300837915664247E-03
               8.1476723684735623E-03
              -1.0609586636722847E-02
               3.6820119549278241E-03
              -3.0079593465561871E-03
               5.9159169133406603E-03
              -7.6979420962839946E-04
               2.1726979424873320E-03
               1.8004988813249634E-02
              -1.6274145032152891E-03
               1.7279898124604363E-03
               8.0292633809486485E-04
              -2.5385240440156938E-03
              -4.0857162238873545E-03
              -4.3161156589882586E-03
               3.9526091993591318E-03
               9.7800273512261022E-03
              -4.4360369787775772E-03
              -7.5949339723517355E-03
              -4.2137757389592882E-03
               4.3098155403250458E-03
               4.3409507874244005E-03
               1.2311172081917879E-03
               1.5555243491662391E-03
               5.2654739022817993E-03
               1.9642599606259577E-02
              -1.1186568128207503E-02
              -1.1737872583885707E-02
              -1.2370374558683112E-02
               1.8131715067553777E-05
               1.1547840205212042E-03
               1.5245168224637951E-03
               2.4439878423633894E-03
              -1.7047470773971085E-04
              -3.8068462492628378E-03
              -1.3059374653685483E-02
               1.5470858911999844E-02
               9.5686441655981700E-03
              -8.3761614747667155E-03
              -7.2410511137365107E-03
               1.9061840989368021E-03
               6.2525951733827870E-03
              -2.0206821950312722E-03
              -1.5481803879377963E-02
               5.1847644241774784E-03
               4.2743225976842984E-03
              -5.3103247290590648E-03
               1.2769313755382136E-02
              -1.8447364991631948E-02
              -8.2182259912685057E-03
               4.0161439657941944E-03
               9.9374176390089634E-04
               4.2777626805110106E-04
              -1.0831258348444417E-02
               6.4363935095796635E-03
               5.4245662167934161E-03
               3.7320112949821098E-03
               7.9369523778541288E-03
              -6.1648396605220039E-04
              -7.1254716546560511E-03
              -2.2304363355295717E-03
               3.9969162180745347E-03
              -1.2942252425594278E-03
               1.5136407930814421E-02
               2.8856121612905461E-03
              -9.0541335223238203E-03
              -6.9568014068372404E-03
              -1.9934250953328745E-03
               3.9769022191266248E-04
               4.7012218428000062E-03
               2.6255219768554789E-03
              -1.7252444413834492E-03
               4.1603371980150220E-03
               1.0414154257192547E-02
               1.1278223146703268E-03
               3.9359556894037685E-04
              -3.4682114357673338E-04
               8.8305068505000264E-03
              -9.2253934759276013E-03
              -2.8786687183228108E-04
               1.5311109351523531E-04
               4.0979115452967965E-03
               1.1522431069304452E-02
               2.0123077200212810E-03
              -7.8796710182188322E-03
              -3.1187362761207375E-04
              -4.6515233080084524E-03
               1.7725017133885415E-03
              -2.9329277232369717E-03
               4.2090985655803409E-03
               2.5014783948989722E-03
               1.0518989422445757E-02
               4.3145854342653567E-04
              -3.7517933583155732E-03
               2.8119953071221787E-03
              -5.0998803602791834E-04
              -7.5267302319313072E-04
              -1.1649634905016252E-03
              -1.5518319539908493E-03
               1.0202594580397292E-02
              -3.5006684810414356E-04
              -1.1313067853946854E-03
               4.9189321965907359E-03
              -7.0688079048919789E-03
              -4.0129446414643039E-04
              -5.5475163492975021E-03
              -1.0629088991097414E-02
               2.9229620017756012E-03
               1.2608959498438252E-02
               1.6290848520377918E-02
               1.7923390635965005E-03
              -3.8211795195696600E-05
         &END THERMOSTAT_ENERGY
         &RNG_INIT
Wiener process for Thermostat # 1        1 F T T  -4.3866331554119464E-01        3463026290.0         996283881.0        3077134961.0        1575188103.0         352198642.0        1255594993.0             12345.0             12345.0             12345.0             12345.0             12345.0             12345.0             12345.0             12345.0             12345.0             12345.0             12345.0             12345.0
Wiener process for Thermostat # 2        1 F T T   6.1664168869435698E-01         581397078.0        3867423482.0         327967633.0        1486938113.0          26429212.0        4093174459.0        3692455944.0        1366884236.0        2968912127.0         335948734.0        4161675175.0         475798818.0        3692455944.0        1366884236.0        2968912127.0         335948734.0        4161675175.0         475798818.0
Wiener process for Thermostat # 3        1 F T T   2.0518696979926636E+00        1062843694.0        3278483557.0        2630284801.0         342499437.0         508306288.0         570022504.0        1015873554.0        1310354410.0        2249465273.0         994084013.0        2912484720.0        3876682925.0        1015873554.0        1310354410.0        2249465273.0         994084013.0        2912484720.0        3876682925.0
Wiener process for Thermostat # 4        1 F T T   8.6483655468840070E-01         858988242.0         878260951.0        1341305949.0        1687735708.0        1261279903.0        1615458589.0        2338701263.0        1119171942.0        2570676563.0         317077452.0        3194180850.0         618832124.0        2338701263.0        1119171942.0        2570676563.0         317077452.0        3194180850.0         618832124.0
Wiener process for Thermostat # 5        1 F T T  -7.2623034709222295E-02        3503246388.0        3640749438.0          80160185.0        4050541932.0        1809135917.0         826251710.0        1597262096.0        3906379055.0        3312112953.0        1016013135.0        4099474108.0         275305423.0        1597262096.0        3906379055.0        3312112953.0        1016013135.0        4099474108.0         275305423.0
Wiener process for Thermostat # 6        1 F T T   2.6094790259997280E+00        1648662560.0         298744963.0         276080774.0        3452610735.0        2129471280.0        4132861437.0          97147054.0        3131372450.0         829345164.0        3691032523.0        3006063034.0        4259826321.0          97147054.0        3131372450.0         829345164.0        3691032523.0        3006063034.0        4259826321.0
Wiener process for Thermostat # 7        1 F T T   1.3118545096244869E+00        4025695046.0        1027992126.0        3217973651.0        2155997853.0        1780084567.0        1907814450.0         796079799.0        2105258207.0         955365076.0        2923159030.0        4116632677.0        3067683584.0         796079799.0        2105258207.0         955365076.0        2923159030.0        4116632677.0        3067683584.0
Wiener process for Thermostat # 8        1 F T T   7.1524753302764935E-02        2631328646.0          66904958.0        3191287979.0        3452779318.0        2048731614.0        3759050068.0        3281794178.0        2616230133.0        1457051261.0        2762791137.0        2480527362.0        2282316169.0        3281794178.0        2616230133.0        1457051261.0        2762791137.0        2480527362.0        2282316169.0
Wiener process for Thermostat # 9        1 F T T  -1.0980465140389938E-01        1977246253.0        1903248984.0        3508262652.0        2466127224.0         300284070.0         767034957.0        3777646647.0        1837464056.0        4204654757.0         664239048.0        4190510072.0        2959195122.0        3777646647.0        1837464056.0        4204654757.0         664239048.0        4190510072.0        2959195122.0
Wiener process for Thermostat # 10       1 F T T   1.9081094228418396E+00         405211316.0        3215252316.0        3029076279.0        3899943421.0         886526099.0         586515832.0        4215590817.0        3862461878.0        1087200967.0        1544910132.0         936383720.0        1611370123.0        4215590817.0        3862461878.0        1087200967.0        1544910132.0         936383720.0        1611370123.0
Wiener process for Thermostat # 11       1 F T T  -5.3344054384789541E-01        3450000619.0        1059116059.0        3916567347.0         635813254.0        3901690603.0        3696418470.0        1683636369.0         362165168.0         814316280.0         869382050.0         980203903.0        2062101717.0        1683636369.0         362165168.0         814316280.0         869382050.0         980203903.0        2062101717.0
Wiener process for Thermostat # 12       1 F T T   8.9448207812820613E-01        1696219248.0        1783691089.0        1685873716.0        1285524479.0        2726140602.0        4269630803.0         272317999.0         166758548.0         310112982.0         201045826.0        1680231254.0         118290799.0         272317999.0         166758548.0         310112982.0         201045826.0        1680231254.0         118290799.0
Wiener process for Thermostat # 13       1 F T T  -1.0297203341400047E+00        4019568919.0        3484227797.0         947541978.0        4224885921.0        2127446270.0         502669027.0        2245755202.0        1652682525.0        2865544364.0         721509566.0         209733568.0         592362218.0        2245755202.0        1652682525.0        2865544364.0         721509566.0         209733568.0         592362218.0