 # Version information for this restart file 
 # current date 2023-11-30 19:56:58.564
 # current working dir /home/hv454/comp-lab-class-2023/Week12/Runs/Proton
 # Program compiled at                              Sat Dec 12 18:27:15 EST 2020
 # Program compiled on                                         cs001.nyu.cluster
 # Program compiled for                                                nyu-intel
 # Source code revision number                                       git:8c64c6e
 &GLOBAL
   PRINT_LEVEL  LOW
   PROJECT_NAME proton_aimd_1ns_every0.5fs
   RUN_TYPE  MD
   WALLTIME 21600
 &END GLOBAL
 &MOTION
   &GEO_OPT
     OPTIMIZER  BFGS
     MAX_ITER  100
     MAX_DR     3.0000000000000001E-03
     &BFGS
     &END BFGS
   &END GEO_OPT
   &MD
     ENSEMBLE  NVT
     STEPS  2000
     TIMESTEP     4.9999999999999994E-01
     STEP_START_VAL  1997
     TIME_START_VAL     9.9849999999998249E+02
     ECONS_START_VAL    -1.1180339613148931E+03
     TEMPERATURE     3.0000000000000000E+02
     &THERMOSTAT
       TYPE  GLE
       REGION  MASSIVE
       &GLE
         NDIM  5
         A_SCALE     1.0000000000000000E+00
         A_LIST     1.8595758612559999E+02    2.7263853498399998E-01    1.1526100454610001E+01   -3.6414578262600003E+01 \
             2.3173375816020001E+02
         A_LIST    -2.7809524712060002E-01    8.5951591808710006E-05    7.2189048017650004E-01   -1.9844539343859999E-01 \
             4.2409257583420001E-01
         A_LIST    -1.4825808131210000E+01   -7.2189048017650004E-01    1.3590902121280000E+00    5.1498896280349999E+00 \
            -9.9949268450990001E+00
         A_LIST    -1.0372189126880000E+01    1.9844539343859999E-01   -5.1498896280349999E+00    2.6661910891169999E+01 \
             1.1507715495310000E+01
         A_LIST     2.1801346360420001E+02   -4.2409257583420001E-01    9.9949268450990001E+00   -1.1507715495310000E+01 \
             3.0958394565589998E+02
         &THERMOSTAT_ENERGY
               1.0082638053286446E-02
              -9.7834691484882945E-04
               1.7851481512260538E-02
               1.6827424961021811E-03
              -5.9093093146749412E-03
               4.6466422110287781E-03
               1.4531824299069251E-03
               1.1659781605249856E-02
              -1.3872917166443310E-03
              -2.1099569767968024E-03
              -6.5466530401453935E-03
              -1.3922794538861500E-03
              -3.7241482687917402E-03
              -1.0829359196218779E-02
               3.7166536457614837E-03
               4.2749162591472663E-03
              -4.6133974050358607E-03
               1.7434844812717197E-03
               1.7327843144917168E-02
               5.2791995714149952E-03
              -8.2312675435644786E-03
              -3.7089107418581133E-03
              -4.6306405818676523E-03
              -5.5053181964446964E-04
               6.0981474304589167E-03
               1.0476393686980031E-03
              -5.6567629375314614E-03
               7.9846854744608543E-03
              -5.6748149816168768E-04
               3.8738782893613260E-03
               4.7362018971879331E-03
              -3.3680153073043207E-03
               7.0728621511072587E-03
               1.5323809440840898E-02
               9.5994171836825167E-04
              -4.7298817495499065E-03
               6.1949491270357725E-03
              -1.8947794535866685E-02
               3.8911765050780043E-03
               7.8308630531391463E-03
               2.7660325114746867E-03
               4.0004277600336202E-03
              -1.6752674833682989E-02
               1.2585036502946347E-02
               5.0318096369830600E-03
              -1.0423240551840404E-02
               2.2355528436486972E-04
              -2.0465828176915888E-03
              -3.4200692006113738E-03
              -1.3394625126842594E-03
              -4.1895509951329095E-03
               5.4877045886305700E-03
               6.3384235997757566E-04
              -7.9571342369777961E-03
              -1.0374867381839020E-02
              -4.7852779824355965E-03
              -6.0837869317717473E-03
               6.1181406551465470E-04
              -3.8476699392124194E-03
              -3.6834978576893770E-03
              -7.3237867667762689E-03
              -1.7135307180415194E-04
               1.6829423855558339E-02
               1.5812539293989006E-03
               1.6149781310155417E-02
              -1.3864789901115736E-02
              -4.9458008632599559E-03
               8.6741277187904399E-04
               1.9278520479354573E-03
               8.2741022041456953E-03
              -1.0957230328140256E-03
              -5.2118875871575224E-03
              -2.7459027479943645E-03
               2.3306914265529802E-03
               5.2176180961980177E-03
              -5.3780140163832276E-03
               7.0055529825335259E-03
              -2.2080929321180589E-04
               1.0387601186823288E-03
              -2.6159202010000819E-03
               3.2052015864529639E-03
               9.2003867684230115E-04
               2.0892021050821570E-03
              -2.5371853619385199E-03
              -8.0078865807438025E-03
              -5.0258925607073136E-03
               1.1791560788637212E-02
              -1.1083124400321677E-02
              -2.7056732728944705E-03
              -5.4741761240457315E-04
               1.7519440288278469E-03
               3.7229663788770234E-03
              -3.8899953919481188E-03
              -2.7440325975884527E-03
               1.5101271374496572E-02
               5.8209961415449886E-03
              -5.4114274997768465E-03
              -3.9978889758899580E-03
               2.2286556723594112E-03
              -2.7857192669969969E-03
              -1.3760396166881652E-02
              -2.2641622161403800E-03
               5.6223562531887488E-03
              -3.5878270002899296E-03
              -7.4947584661769207E-03
               1.0087082218801169E-02
               2.5384173751643882E-02
               5.7262058473488966E-03
               1.7241716658574859E-03
               2.9303065214867606E-02
               4.0114023115755786E-02
               1.0613581597577491E-02
              -3.0120163608067549E-03
              -4.0718492055358824E-03
              -4.3459540135359356E-04
               5.1303150319019072E-03
              -5.5656512373973722E-03
               1.3795455335712387E-02
              -1.8080648404814172E-03
               8.5596420153549891E-03
               3.4973942796197250E-03
               3.7563926404382830E-03
               4.7322817038519295E-03
              -4.3426547391081328E-03
               1.8687777093593851E-02
              -1.0188794662039685E-02
               6.9645878294786693E-03
              -5.5986177081448877E-04
              -2.0723895736587918E-02
              -6.9402660671339864E-03
               4.1464882032224114E-03
               1.2505599747136466E-03
              -8.1030097667084515E-03
              -5.7629681289669442E-04
              -5.2801410376438502E-03
               2.6220548149189166E-03
              -2.7332391395982078E-02
               1.5312413426572014E-02
              -4.5386422138318202E-03
               5.7260743582649232E-03
              -1.9016188342253769E-05
               1.5540523605153114E-02
              -4.2492273435639264E-04
              -1.3205424049870084E-02
              -1.7155737148947534E-03
              -3.6594804203903828E-03
              -1.6568549931953076E-04
               1.9069423042892141E-03
              -3.7976216846457946E-03
               5.1809801358921404E-03
              -2.7264576568395834E-03
               1.2568673480034418E-04
              -3.3072103414031259E-03
              -1.1462445386068821E-02
               1.0804156906674243E-02
              -1.0161315783919563E-03
              -1.0231181488485369E-02
               1.0408889303192236E-03
               2.6759110716352459E-03
               1.4845434028804607E-02
              -2.6379555201806295E-03
              -1.0518452842428335E-02
              -1.6133438876787330E-02
               6.6328476505743876E-03
               3.4215603301338093E-03
               1.6089087897890025E-03
               9.4066219236439751E-04
              -6.0808626070375455E-03
              -9.4820589699785296E-03
              -1.2931138197421674E-03
              -5.8278170141484460E-04
               5.9175345063088589E-03
               2.2759116657660599E-02
              -4.3959193683796366E-03
               3.2122178998974359E-03
              -8.6316807034485883E-04
               3.3030374204772155E-03
              -9.9259390351669093E-03
              -9.9046150305527846E-03
              -4.5528674685414074E-03
              -1.3060187447563134E-03
               7.9968149238672220E-03
              -9.2444623314817838E-04
              -4.7515659053341671E-03
              -9.0603951812830846E-04
               1.1492935842573754E-03
               8.8002810566597915E-03
               1.5790864099922541E-03
              -8.0219624536277765E-03
               3.6137936419494568E-03
              -7.5895924723274324E-03
               6.5844559329456551E-03
               3.9917467320346934E-05
              -9.6595174492820012E-04
               2.3993308055500055E-03
               3.8067506549226233E-03
              -7.4780718994955165E-03
               4.3147348124922130E-03
              -1.9694746470941315E-03
              -1.1173124011898634E-02
               6.2263901366786919E-03
              -2.9942443883727468E-03
              -5.6758780099565769E-03
               3.1244008039068747E-04
              -1.4511453394968018E-03
              -1.0689898029390939E-02
               1.1717063789797907E-03
               7.1772074836908891E-03
              -8.9778680783418208E-03
               1.7072383086890665E-02
              -3.0339629139406544E-03
               4.0075319954198958E-03
               3.1790832731356080E-03
               7.8335753621202389E-03
              -5.0241702081960209E-03
              -4.4776557184093230E-03
              -1.4023383956690897E-02
               1.4492095853046843E-02
              -6.9950539063221547E-03
               2.6957596499537838E-03
              -2.1954604200523364E-03
               3.8525193941005009E-03
              -8.8560771997968218E-03
              -1.4088540399350142E-03
               8.5233742975195440E-03
              -7.4509143365743512E-03
               6.4029836061139664E-03
               1.0130150150596234E-02
               7.6654613047142913E-04
               1.6538540442689553E-02
              -4.2434930367668345E-03
               2.2799136588711184E-03
               8.3969425303338178E-03
               8.9706965831928549E-04
               5.3450818415060062E-03
              -6.0257427538145799E-03
              -2.2369760552819504E-03
               3.4639498989529676E-03
               6.1233845886653074E-03
               8.0485754540226726E-04
               8.5415787742999655E-03
               5.1209784090174787E-03
              -7.4185845170214966E-03
              -8.2344808426427045E-03
               3.6017258536959239E-03
              -7.4587210130470857E-03
              -2.5076460570766547E-03
               2.8336523253008729E-03
              -3.7202808402815386E-03
              -5.0910313609187985E-03
               1.6115274437659415E-02
              -9.6004256509371871E-03
              -2.6932708793090381E-03
              -8.1930318986605452E-03
               1.3484447693086256E-03
              -8.2468747583574406E-03
               2.7778291356635866E-03
               7.1566022989616252E-03
               2.2014220557452732E-03
              -7.2934489697568773E-03
               9.3585447109337336E-03
               5.0617086256078405E-03
              -3.3283002199703325E-03
               7.2647184334186066E-04
               1.0175517595619511E-02
               8.5096898061721368E-03
               1.1894806590415167E-02
              -3.0786779340199718E-03
               7.8753574360609386E-03
              -6.2685038236738313E-03
              -1.3614627469642157E-03
              -4.8241338464700299E-03
               9.4876764125416766E-03
               1.2396860497099107E-04
               3.8134635904328324E-03
              -5.3391653269790002E-03
              -1.4167927793588914E-02
               8.1576452202221702E-03
              -1.3675393838216577E-03
               2.3116023623282373E-02
              -2.0420712613199731E-02
              -5.4507998020686963E-03
               3.6741514784331326E-03
              -3.2309753294619019E-03
               2.0701495342138553E-03
              -1.3509751985854652E-02
              -2.1314581108146683E-03
              -3.3920748933887715E-03
              -1.6334122693274385E-02
              -1.1719496727028568E-03
               1.5943055353679857E-02
              -1.1224173993298870E-03
               1.1060451343358304E-03
              -2.1473403509402423E-03
              -8.3288689111543739E-03
               1.1030808885366606E-02
              -1.3407519716052200E-02
               1.1330740716107561E-02
               5.8058952878398346E-04
              -1.2540848827000347E-02
               2.0841515531881127E-03
               1.4348561893496044E-02
               1.0772773789551889E-02
               1.0082972789134515E-02
               9.6707712811229044E-03
              -1.9249323334718779E-02
              -8.1818122670840234E-03
               7.3338732053979542E-03
               5.8421076288561261E-03
               2.3557128965945489E-03
               1.2510800470697961E-03
              -3.0857451456296099E-03
               3.0603936985588980E-03
               1.8293241416823642E-03
               7.6091325504798720E-03
              -9.7250475015914668E-03
              -4.0036453101342079E-04
              -3.6536111907271206E-04
              -1.8683789118806204E-02
              -6.0975020551395425E-03
               2.7668849181189102E-03
               4.7498958958237334E-03
               1.0725714446514973E-03
               7.2597402387519659E-03
              -1.1770735776727052E-02
               1.6781899147683507E-02
              -1.5802180320404493E-03
              -1.4081183073306385E-03
              -3.3597138392612589E-03
               3.3747092251325268E-03
              -7.7410188857057376E-03
               2.5875824078301314E-03
               1.4776479306491459E-02
              -8.2989515034049210E-04
               8.1293131733859436E-03
              -8.3938987531699313E-03
               1.9184143651295241E-03
              -4.7473473177261720E-04
               4.1783750601784662E-03
              -9.6590980793286943E-03
              -4.3846258168958865E-03
               3.2534618068329614E-05
              -1.8700010307775572E-03
               1.2773980960516877E-02
               1.0188998118136384E-02
               3.7315460879207459E-03
               4.2885857172924573E-03
              -5.5540537889653165E-03
               1.3158713639733042E-02
               2.6654183952584277E-03
              -8.7880181514732991E-03
              -2.6577977420220913E-03
              -7.3743707617604376E-03
               6.5486649897336085E-03
              -8.3179901244784314E-04
              -2.6849577765481534E-03
              -6.4695501145661718E-04
               5.1856366485597029E-03
              -8.9280040060789427E-03
               1.9988447123252236E-03
               3.2936429228258412E-03
               1.8606475389953804E-03
               8.4218820406956312E-03
               3.6311864874027807E-03
              -6.4438535296062376E-04
               4.9230098234231238E-03
               1.8075987525021986E-02
              -2.9110142925676949E-03
              -2.0496212864058574E-02
              -1.0309806197795448E-02
               1.0429952658673153E-03
               3.6895078515402739E-03
               3.4704115265458734E-03
               2.9381195526060585E-03
               1.1905142465600629E-03
               7.3741736420756326E-03
              -6.9196298203601531E-03
              -1.1807064090832476E-02
              -3.5480452334392737E-03
               4.6677374170127749E-03
               1.0999773349933609E-02
               1.0021759098654905E-02
               2.5106000147138352E-03
               4.8461927923626518E-04
              -1.1138405433719226E-02
              -8.6469974796227235E-03
               1.1214030587290277E-02
               2.8047013645896390E-03
               5.4141399040564695E-03
              -1.6041605145647273E-03
              -5.0102686366699997E-03
               6.3786790381546461E-03
               3.9729475016904003E-03
              -1.9777370208710213E-03
               9.7315883019020583E-03
               3.9213094587875709E-03
               2.2473915335868692E-03
              -1.0946070310836064E-02
               4.1540292819686802E-03
              -1.2558528947947821E-03
              -4.0532073802503343E-03
              -2.9507180543908570E-03
              -5.3744482892642172E-03
              -4.8703221804978448E-03
              -4.3284665843874529E-03
              -1.4130747993482295E-02
               9.9957540183507991E-03
              -7.6786829031790117E-03
              -4.2884264318481212E-03
               3.9602152998478579E-03
              -2.9649880970315195E-03
               8.0750443220791758E-04
              -4.2365171260155092E-03
               4.4903519011989732E-03
              -1.9217449560933924E-03
               1.0906967240116376E-02
              -8.2225931784383442E-03
              -3.9317108214650606E-03
               8.2187138198773274E-04
               5.1690874383284759E-04
               1.2817194584287045E-02
               9.8239474373427206E-03
              -5.5523685875728162E-03
               1.4473942304173515E-03
               4.5740706724662593E-03
              -9.4829303442109086E-03
               4.0745763067376916E-03
               3.5501937405033063E-03
               1.8691337243075239E-03
              -2.0763424020042065E-03
              -2.6105866773733144E-03
              -5.6460031983589058E-03
              -1.1348247272615793E-02
               8.3964568056814487E-03
               1.6524491969103893E-02
               1.7521969431248154E-03
              -1.9989198700214512E-03
              -2.2210475158390996E-03
               1.7451104410324174E-03
              -6.2085598473867352E-03
               5.8593917329146268E-03
               2.0565783148224865E-03
              -3.5732467239411821E-03
               2.5893808384025779E-03
               3.0887307146991619E-03
               5.2322934399078253E-03
               1.7267602523565316E-04
               1.4471263940084382E-02
               6.2890829334257591E-03
              -1.0143974318004428E-02
              -3.9915806734566505E-03
              -1.1127452206485760E-02
               9.8398594531735398E-03
               1.4001471349225729E-03
               9.6020147919895372E-03
              -2.6668604153227840E-03
              -6.2820354247936395E-03
              -1.0896645844221288E-02
              -1.1251828556191314E-02
              -7.4935274252906922E-03
               1.9640702391816506E-02
               6.0308850760936008E-03
              -2.5504004606637567E-03
               5.7579167914216080E-03
               5.8505570407012568E-04
               7.8755420739558420E-04
              -9.6438894993101602E-03
               2.9363334080286917E-03
               8.3307722221056726E-03
              -1.0342675300229920E-02
               2.7003526123648993E-03
              -2.9559755509373075E-03
               6.0456489210104006E-03
              -6.3705117639906563E-04
               2.0620376509662558E-03
               1.7236309252128879E-02
              -1.4565455505093459E-03
               1.9196369820419243E-03
              -2.9378012199929727E-04
              -3.7662896734694234E-03
              -5.0912356284075972E-03
              -4.1227735232942262E-03
               5.0443887412054342E-03
               9.8219947445098727E-03
              -2.5590684248401278E-03
              -7.3785999209360293E-03
              -4.3791048992356590E-03
               3.8449714304645993E-03
               3.8104944736452335E-03
               3.8576964370799923E-04
               1.6912734027216361E-03
               5.0755817142029971E-03
               1.9804860796638173E-02
              -1.1565223126446818E-02
              -1.1769111729095682E-02
              -1.2359486330028733E-02
              -1.3459136376804514E-03
               7.0599325854067403E-04
               9.7486839836400925E-04
               2.5719965974030138E-03
              -1.6320286803356955E-03
              -3.7974178334649143E-03
              -1.3136589839829901E-02
               1.5333362178871992E-02
               9.8308698997144617E-03
              -8.5879392878760331E-03
              -7.0766731174764889E-03
               2.5079275499346946E-03
               5.3085317456807272E-03
              -1.9986334297574619E-03
              -1.5707487100339312E-02
               5.4610964678181639E-03
               4.1556966047512868E-03
              -5.2546617367347183E-03
               1.2741646273513391E-02
              -1.8316344507858913E-02
              -8.4281846979235072E-03
               4.7278521135861598E-03
               1.4241026078633996E-03
               3.0159230311033023E-04
              -1.0887606138293541E-02
               4.8075609752148488E-03
               5.3347611474138775E-03
               3.6237483855447320E-03
               7.5467269951150426E-03
              -6.1885126534630441E-04
              -7.0871600820873659E-03
              -1.7718652383252396E-03
               3.1822798569425990E-03
              -3.2133532068408868E-03
               1.5073454192159502E-02
               3.0422619993146268E-03
              -8.8661327358990731E-03
              -6.9299814339611803E-03
              -2.7164694218040947E-03
               3.0138941852280647E-04
               4.6501830277573958E-03
               2.9057457391407191E-03
              -2.0323920395805394E-03
               4.1675039195147642E-03
               1.0295546699707954E-02
               1.4615021434779695E-03
               3.3266715023877306E-04
              -1.8516274773192943E-04
               8.7963404701453494E-03
              -9.2209584833866393E-03
               2.5338287910344436E-04
               4.1906237651766621E-05
               4.6319135242757067E-03
               1.1582738929840271E-02
               3.0755954417994160E-03
              -7.5197713705239845E-03
               2.1603607350295922E-04
              -5.2324352800988735E-03
               1.8859691379080640E-03
              -2.7604117250970258E-03
               4.1954897284729748E-03
               2.7018880011098955E-03
               1.0195571239384003E-02
               2.2845688022667151E-04
              -3.7037727823948717E-03
               2.6249614122059832E-03
              -6.0777543679516597E-04
              -4.2680997430447689E-04
               3.2843824309098860E-04
              -3.0649895273661409E-03
               1.0590242805024502E-02
              -5.0899840763721270E-04
              -1.1285815309008580E-03
               5.6952110283456083E-03
              -7.5849085370765850E-03
              -4.9643820269864268E-04
              -6.6775888613770078E-03
              -1.0762657367017594E-02
               3.6699392423260599E-03
               1.2778569730050404E-02
               1.6587030750231917E-02
               1.9450559443171427E-03
               2.7134290778018093E-05
         &END THERMOSTAT_ENERGY
         &RNG_INIT
Wiener process for Thermostat # 1        1 F T T   3.7280401166127353E-01        2396824340.0        1285798124.0        1970812289.0        4262378425.0        2500496477.0        3105761546.0             12345.0             12345.0             12345.0             12345.0             12345.0             12345.0             12345.0             12345.0             12345.0             12345.0             12345.0             12345.0
Wiener process for Thermostat # 2        1 F T T  -2.8031459711754392E-01        1517340215.0         764337745.0        1777988352.0        1272471177.0        3093987526.0        2495380513.0        3692455944.0        1366884236.0        2968912127.0         335948734.0        4161675175.0         475798818.0        3692455944.0        1366884236.0        2968912127.0         335948734.0        4161675175.0         475798818.0
Wiener process for Thermostat # 3        1 F T T   7.0414863813957229E-01        1874984675.0        3540139467.0        3102430019.0        1608426380.0         643336117.0        1230365417.0        1015873554.0        1310354410.0        2249465273.0         994084013.0        2912484720.0        3876682925.0        1015873554.0        1310354410.0        2249465273.0         994084013.0        2912484720.0        3876682925.0
Wiener process for Thermostat # 4        1 F T T   2.2606224243119818E-01        3416187057.0        1637601412.0         393440280.0        2948182120.0        3407482107.0        2343296956.0        2338701263.0        1119171942.0        2570676563.0         317077452.0        3194180850.0         618832124.0        2338701263.0        1119171942.0        2570676563.0         317077452.0        3194180850.0         618832124.0
Wiener process for Thermostat # 5        1 F T T  -1.0267294306732384E+00         315072143.0        4137263975.0        4196656129.0        1282237791.0        3639735469.0        1937530485.0        1597262096.0        3906379055.0        3312112953.0        1016013135.0        4099474108.0         275305423.0        1597262096.0        3906379055.0        3312112953.0        1016013135.0        4099474108.0         275305423.0
Wiener process for Thermostat # 6        1 F T T   9.2624835653208748E-01        3222219212.0        3105331301.0        2094058484.0        2511776071.0        3719186732.0        3505559269.0          97147054.0        3131372450.0         829345164.0        3691032523.0        3006063034.0        4259826321.0          97147054.0        3131372450.0         829345164.0        3691032523.0        3006063034.0        4259826321.0
Wiener process for Thermostat # 7        1 F T T  -4.6721006089689310E-01        2921304001.0        3534845789.0         764942181.0        2980414860.0        2807768180.0         274774080.0         796079799.0        2105258207.0         955365076.0        2923159030.0        4116632677.0        3067683584.0         796079799.0        2105258207.0         955365076.0        2923159030.0        4116632677.0        3067683584.0
Wiener process for Thermostat # 8        1 F T T   4.8809173354813140E-01        3327178806.0        3682317356.0        2663069382.0         319044460.0        3975670735.0         562702070.0        3281794178.0        2616230133.0        1457051261.0        2762791137.0        2480527362.0        2282316169.0        3281794178.0        2616230133.0        1457051261.0        2762791137.0        2480527362.0        2282316169.0
Wiener process for Thermostat # 9        1 F T T  -8.1805399140306756E-01         433221438.0         349071730.0        2033385903.0        2639944804.0        3988392127.0        3801627598.0        3777646647.0        1837464056.0        4204654757.0         664239048.0        4190510072.0        2959195122.0        3777646647.0        1837464056.0        4204654757.0         664239048.0        4190510072.0        2959195122.0
Wiener process for Thermostat # 10       1 F T T  -2.7062828385550008E-01        2290601073.0        1666814614.0        3289919364.0        2930088785.0        1500929831.0        1860303943.0        4215590817.0        3862461878.0        1087200967.0        1544910132.0         936383720.0        1611370123.0        4215590817.0        3862461878.0        1087200967.0        1544910132.0         936383720.0        1611370123.0
Wiener process for Thermostat # 11       1 F T T   6.8652417552969780E-01        2151060734.0         580174056.0        1748210725.0         399674445.0        1879492130.0        2741776977.0        1683636369.0         362165168.0         814316280.0         869382050.0         980203903.0        2062101717.0        1683636369.0         362165168.0         814316280.0         869382050.0         980203903.0        2062101717.0
Wiener process for Thermostat # 12       1 F T T   1.2985463821691814E+00        3478492904.0        1830493925.0          17364685.0        2058676739.0        2676153401.0        4087350495.0         272317999.0         166758548.0         310112982.0         201045826.0        1680231254.0         118290799.0         272317999.0         166758548.0         310112982.0         201045826.0        1680231254.0         118290799.0
Wiener process for Thermostat # 13       1 F T T   2.0061703114922356E+00        2097018817.0        1300727704.0         367347443.0         582130443.0        2824054692.0        3111690587.0        2245755202.0        1652682525.0        2865544364.0         721509566.0         209733568.0         592362218.0        2245755202.0        1652682525.0        2865544364.0         721509566.0         209733568.0         592362218.0