 # Version information for this restart file 
 # current date 2023-11-30 19:57:14.893
 # current working dir /home/hv454/comp-lab-class-2023/Week12/Runs/Proton
 # Program compiled at                              Sat Dec 12 18:27:15 EST 2020
 # Program compiled on                                         cs001.nyu.cluster
 # Program compiled for                                                nyu-intel
 # Source code revision number                                       git:8c64c6e
 &GLOBAL
   PRINT_LEVEL  LOW
   PROJECT_NAME proton_aimd_1ns_every0.5fs
   RUN_TYPE  MD
   WALLTIME 21600
 &END GLOBAL
 &MOTION
   &GEO_OPT
     OPTIMIZER  BFGS
     MAX_ITER  100
     MAX_DR     3.0000000000000001E-03
     &BFGS
     &END BFGS
   &END GEO_OPT
   &MD
     ENSEMBLE  NVT
     STEPS  2000
     TIMESTEP     4.9999999999999994E-01
     STEP_START_VAL  1999
     TIME_START_VAL     9.9949999999998238E+02
     ECONS_START_VAL    -1.1180339613148931E+03
     TEMPERATURE     3.0000000000000000E+02
     &THERMOSTAT
       TYPE  GLE
       REGION  MASSIVE
       &GLE
         NDIM  5
         A_SCALE     1.0000000000000000E+00
         A_LIST     1.8595758612559999E+02    2.7263853498399998E-01    1.1526100454610001E+01   -3.6414578262600003E+01 \
             2.3173375816020001E+02
         A_LIST    -2.7809524712060002E-01    8.5951591808710006E-05    7.2189048017650004E-01   -1.9844539343859999E-01 \
             4.2409257583420001E-01
         A_LIST    -1.4825808131210000E+01   -7.2189048017650004E-01    1.3590902121280000E+00    5.1498896280349999E+00 \
            -9.9949268450990001E+00
         A_LIST    -1.0372189126880000E+01    1.9844539343859999E-01   -5.1498896280349999E+00    2.6661910891169999E+01 \
             1.1507715495310000E+01
         A_LIST     2.1801346360420001E+02   -4.2409257583420001E-01    9.9949268450990001E+00   -1.1507715495310000E+01 \
             3.0958394565589998E+02
         &THERMOSTAT_ENERGY
               1.0087421899388228E-02
              -8.7868326795224969E-04
               1.7871112389444645E-02
               2.0713319408915557E-03
              -6.0711952370907409E-03
               4.8913468895968055E-03
               1.4319036440584841E-03
               1.1556785274287086E-02
              -9.2364426447483694E-04
              -2.3122409975390051E-03
              -6.5231132330442598E-03
              -1.2305146376174500E-03
              -4.3858199501428802E-03
              -1.0724203698868355E-02
               3.8044835582523814E-03
               4.8818276718228717E-03
              -4.7177369036819558E-03
               2.0619730165256571E-03
               1.7955917445353999E-02
               4.8565576183583429E-03
              -8.2612643701285102E-03
              -3.5253312617857459E-03
              -5.0594084394728978E-03
              -2.6569482346429477E-04
               6.2150661576031241E-03
               4.3813350437131202E-04
              -6.1099057914842173E-03
               7.9585636547923923E-03
              -7.1916497655828031E-04
               3.5846659700833321E-03
               4.3747615182071261E-03
              -3.7496536372613196E-03
               7.0777928990393606E-03
               1.5789533464907465E-02
               1.2033210785500825E-03
              -5.2171654555870804E-03
               6.3751549925177026E-03
              -2.0108799017725529E-02
               3.6571388946900294E-03
               8.1041786087609358E-03
               3.0354786611069091E-03
               2.6862207319663330E-03
              -1.7762160713322758E-02
               1.2606128288187376E-02
               5.0207232363915395E-03
              -1.2534999125356100E-02
               4.4541032539472059E-05
              -2.7762285464962132E-03
              -3.5837609039759679E-03
              -7.4895531391173421E-04
              -3.8612951778005632E-03
               5.5714774096171848E-03
               5.8371994687880205E-04
              -7.8066420598812995E-03
              -9.3149886708493359E-03
              -4.3697275530326226E-03
              -6.1797432072393400E-03
               6.0729719223847614E-04
              -3.4920197027625637E-03
              -3.7301029792724504E-03
              -7.3177111932269121E-03
               1.5636425654487178E-04
               1.6799784072524034E-02
               1.5153604455880390E-03
               1.5025706557407297E-02
              -1.3868045663037853E-02
              -4.8811558385219401E-03
               1.3417076793144779E-03
               1.7992061852236318E-03
               7.9046353120091218E-03
              -1.0490857757228978E-03
              -5.4522362227958860E-03
              -3.0583038219486203E-03
               2.6424299639173968E-03
               4.9297359933388150E-03
              -3.8544999339551571E-03
               7.2058720771868987E-03
              -5.3325756627055126E-04
               7.3904107139082605E-04
              -2.4803734807369764E-03
               3.3657912658504900E-03
               6.7976479920086317E-04
               1.9424124103678460E-03
              -2.1979280516571512E-03
              -7.9977634898438388E-03
              -5.0776918095050780E-03
               1.2809135933384678E-02
              -1.1014074325351316E-02
              -2.3062028435750321E-03
              -1.5583819058015663E-03
               1.9852792067527364E-03
               3.8270434279328385E-03
              -3.0075793624861407E-03
              -4.2528877053002912E-04
               1.5110563557376456E-02
               5.7459599694690954E-03
              -5.6021598100755889E-03
              -4.0197898237975972E-03
               1.3038343215390495E-03
              -2.1869852979255855E-03
              -1.3853825934355328E-02
              -3.5473895280306311E-03
               5.5183832414929298E-03
              -2.7425867509639672E-03
              -7.5218082061455794E-03
               1.0230428561302242E-02
               2.5351071557322986E-02
               5.7387894761842381E-03
               1.6923662988802296E-03
               2.9292624260368983E-02
               4.0511878724336307E-02
               1.0930977298589203E-02
              -2.7311043283620618E-03
              -3.9785579485530206E-03
              -6.5146748311099866E-04
               5.2677858913549461E-03
              -5.7676909120457079E-03
               1.3647004878079298E-02
              -1.6557037727082582E-03
               8.3459076194423547E-03
               3.8509480693458258E-03
               3.5297609779505468E-03
               4.7447229156052590E-03
              -4.2273365770445076E-03
               1.8524393334249101E-02
              -9.9464523753421217E-03
               7.0029204878787445E-03
              -4.0988253709867096E-04
              -2.0764544987135345E-02
              -6.1124845981439264E-03
               3.9581942427104845E-03
               1.2514807043055164E-03
              -9.1344023235983719E-03
               1.0654271361126961E-03
              -4.8644235762867671E-03
               8.6562351172406529E-03
              -2.6534219629872666E-02
               1.4827867170758175E-02
              -4.5460804686233711E-03
               5.2051769872293960E-03
               9.5563803698613062E-06
               1.5235664592687867E-02
              -7.9567385650210177E-04
              -1.3396539157957656E-02
              -1.7429008350802737E-03
              -3.2726526122216024E-03
              -2.0756161934112639E-04
               2.0991587068772870E-03
              -4.0208968911009208E-03
               5.4218469452556048E-03
              -3.1836464664668929E-03
               1.5884635599775198E-04
              -2.7681741473413886E-03
              -1.0321143882766991E-02
               1.0828917461807953E-02
              -1.4253989650668164E-03
              -8.2916353405879037E-03
               3.0333680433392088E-03
               2.8167826958807830E-03
               1.4539454411881186E-02
              -1.8742699632122105E-03
              -1.0311057377074960E-02
              -1.6004949302847127E-02
               6.6957560928817715E-03
               3.6196234002615220E-03
               1.2871994726228074E-03
               7.1267102016233231E-04
              -6.4244680217125667E-03
              -9.4243353063240276E-03
              -1.1875133833286152E-03
              -6.8012198677734029E-04
               5.5584559068616798E-03
               2.1288600136680168E-02
              -4.0779557900577981E-03
               3.6223761276171339E-03
              -8.7725241060445606E-04
               3.9258080377358919E-03
              -9.4869224300649820E-03
              -9.5686325517222448E-03
              -4.9576508612881051E-03
              -7.4770729724615002E-04
               7.9396544578833276E-03
              -9.2594609340172665E-04
              -4.4673863244415451E-03
              -1.0377859376171992E-03
               1.3016200273756879E-03
               8.4027492222161181E-03
               8.2098367718662411E-04
              -8.6715371339008539E-03
               4.1992240404450697E-03
              -7.7437915058775134E-03
               6.5650874080164503E-03
               2.0580296156203271E-04
              -7.8176106682647866E-04
               2.6883251192033452E-03
               3.8522440746305291E-03
              -7.4473685587600567E-03
               3.8569899995416906E-03
              -1.8837800746869704E-03
              -1.1024312993151346E-02
               7.4242276285130943E-03
              -2.8198940420976247E-03
              -5.6796422441645145E-03
               2.8498327445391418E-04
              -6.8003369309213612E-04
              -1.1053924211857720E-02
               1.1927549204402011E-03
               7.4437403414134469E-03
              -8.2348839622742379E-03
               1.7103850434634943E-02
              -2.9368779696942555E-03
               4.2104126485844866E-03
               2.9703021735448280E-03
               7.9620413209818153E-03
              -5.0731029166931531E-03
              -5.0791162825283547E-03
              -1.4075375863855606E-02
               1.4460601530772233E-02
              -6.8338273060398113E-03
               2.6991076920390156E-03
              -2.4341607666039907E-03
               4.2806551112929934E-03
              -7.8617378473082120E-03
              -1.2925503045863121E-03
               8.8601206254133088E-03
              -7.4588032388480411E-03
               5.8246486217542210E-03
               1.0292418354494378E-02
               6.5634371222034118E-04
               1.7075426373272782E-02
              -4.6749524992200035E-03
               2.4548325284349565E-03
               8.4514601242011225E-03
               6.6282132330574217E-04
               4.2351100129953403E-03
              -6.0560409274471949E-03
              -2.0028628835521292E-03
               3.4571629626755879E-03
               6.7205808918111565E-03
               7.2000028207562571E-04
               8.3064836336250933E-03
               4.8364937478359545E-03
              -7.4668308855285115E-03
              -8.2484336066431380E-03
               3.7581794699092521E-03
              -6.4992274576518372E-03
              -3.1020625422797697E-03
               2.2129482493385721E-03
              -3.4762737748433377E-03
              -4.9027957719961187E-03
               1.6151943193405748E-02
              -9.7164891689258456E-03
              -2.7134775685559100E-03
              -8.1221582772767007E-03
               2.4567513076575965E-03
              -8.2288589353976243E-03
               2.5888260180501462E-03
               7.0910449909305081E-03
               2.2779828220883080E-03
              -8.1741873204380575E-03
               9.2297222766293836E-03
               5.4431820097511239E-03
              -2.1891243452629343E-03
               5.1206272674772773E-04
               9.7962857278316388E-03
               9.1573824961633295E-03
               1.2092392943633228E-02
              -3.7603916799288841E-03
               7.8823804188088275E-03
              -6.0077148317045012E-03
              -1.8163700003747199E-03
              -5.4058687095299186E-03
               9.8891066542164136E-03
               3.8508164598004605E-04
               4.8397453101198416E-03
              -5.3165262848935387E-03
              -1.4001620761492703E-02
               8.0797283161365228E-03
              -1.6413748199522213E-03
               2.2619548239466550E-02
              -2.0494238607483613E-02
              -5.6358599015693140E-03
               3.5841419803589883E-03
              -3.5234399126157748E-03
               1.9667833705652379E-03
              -1.2804305631232032E-02
              -2.9107785758865803E-03
              -3.3031534588474714E-03
              -1.6405878612052227E-02
              -1.1785512240159333E-03
               1.8732173432291176E-02
              -1.2493069890773651E-03
               1.0932256046688221E-03
              -1.1251159118188757E-03
              -8.1714239208487902E-03
               1.0990900064731218E-02
              -1.3352281845490055E-02
               1.0915431825384023E-02
               4.4482938265771529E-04
              -1.2507217276252744E-02
               1.6784771177402453E-03
               1.4466623551033574E-02
               1.1180871340426264E-02
               1.0104686076667544E-02
               9.6913131077388318E-03
              -1.9580557566340705E-02
              -7.2235351147163255E-03
               7.3907031576027939E-03
               5.9913401995807160E-03
               1.6735965184339679E-03
               9.0703059064016728E-04
              -3.0942730446069399E-03
               4.0100691237629519E-03
               9.5365101668342224E-04
               7.3149678735183995E-03
              -9.4801672878223921E-03
              -1.5924008666491659E-04
              -6.6150766779815551E-04
              -1.8720561197023075E-02
              -6.5719698694266925E-03
               2.7716072369890830E-03
               3.3363559931073668E-03
               1.0554942937698881E-03
               6.8570043489786410E-03
              -1.2840769011944083E-02
               1.5902911308250754E-02
              -2.0975864821435293E-03
              -1.5362348504518904E-03
              -3.1472936328731747E-03
               3.0315243241487494E-03
              -5.8733153027443110E-03
               1.7515810029125147E-03
               1.4773109861138398E-02
              -1.0123764862296812E-03
               8.0944305042890720E-03
              -8.2949531600425355E-03
               1.9775752580667655E-03
              -4.7856863918071331E-04
               4.3749896481323266E-03
              -1.0149596853502470E-02
              -4.2466726972909229E-03
              -3.8994490631995987E-04
              -2.4482049911612493E-03
               1.3374977194928292E-02
               1.0191275232844242E-02
               3.8332579774050966E-03
               6.2064935165504955E-03
              -5.3372966559356244E-03
               1.3162346216693465E-02
               2.5950107536947759E-03
              -8.8462730001799775E-03
              -2.7016540613496423E-03
              -7.5690732463942261E-03
               7.6839481105902543E-03
              -6.4766451984633953E-04
              -3.1609090435666563E-03
              -6.0077873207997525E-04
               5.2531799647761749E-03
              -8.9010167640836968E-03
               2.2929159982480476E-03
               3.2504589073643181E-03
               3.3656182438917413E-03
               9.1413165829732773E-03
               3.8808840444963652E-03
              -6.3511195547240665E-04
               4.0510043114403739E-03
               1.8141672944455657E-02
              -2.7243553372222709E-03
              -2.0193742895958811E-02
              -1.0205486761770050E-02
               1.0484899111957316E-03
               3.7682045975286566E-03
               3.4526667325906041E-03
               2.2324177474609013E-03
               1.5767089522398556E-03
               8.4575978118024506E-03
              -6.8556224916959318E-03
              -1.1798254868225735E-02
              -3.4305647094846504E-03
               4.7754262219460658E-03
               1.1046245956859402E-02
               9.9193574185436149E-03
               2.2409807785417346E-03
               4.3533166283214064E-04
              -1.1858630350525656E-02
              -8.5548307510866107E-03
               1.1221693499416555E-02
               3.2839921820220232E-03
               5.0278197404957942E-03
              -1.7367696828644414E-03
              -4.8258608597185138E-03
               6.4749554283286643E-03
               3.4951352359746234E-03
              -2.1010426556162696E-03
               1.0008598059408116E-02
               3.8108628590650512E-03
               2.7240078662873366E-03
              -1.0821514354023959E-02
               4.7775871141258943E-03
              -1.1780761936376679E-03
              -4.3502721801413711E-03
              -2.8305580363801163E-03
              -5.4530638340739741E-03
              -4.8365325588870774E-03
              -4.6380256444877102E-03
              -1.3722304204009609E-02
               9.8121474244524855E-03
              -7.7758737593967555E-03
              -4.3462080313523338E-03
               4.0412815083319511E-03
              -2.8741034940716979E-03
               5.1702135330995561E-04
              -4.1582825149041108E-03
               4.3082198204897918E-03
              -1.4272955128232308E-03
               1.0931636587573904E-02
              -8.9061067038232484E-03
              -3.5128385870399235E-03
               7.5582432534066477E-04
               1.4173665389179710E-04
               1.3133849331712901E-02
               9.5349177573918441E-03
              -5.3231206192682614E-03
               1.3636823595158524E-03
               5.4325137752028992E-03
              -9.9760961883277512E-03
               3.8421576174212384E-03
               3.1905457371886763E-03
               1.1360236957416322E-03
              -2.6285595763003776E-03
              -2.5316322888829066E-03
              -5.6597367346456632E-03
              -1.1698130540136506E-02
               8.4039052439702396E-03
               1.5670994538873814E-02
               2.8440218126939611E-03
              -2.2379969360327963E-03
              -2.5852948200701543E-03
               2.3680308725004991E-03
              -5.9993211369608343E-03
               5.5075110727684914E-03
               1.3498717643476545E-03
              -3.4985803442538891E-03
               1.5883897478819237E-03
               3.1401955251723966E-03
               5.2530804001246628E-03
               6.4362811167337219E-04
               1.4488947434583592E-02
               6.3580929966271524E-03
              -1.0055937527102085E-02
              -4.4612528990993511E-03
              -1.1059683167647848E-02
               9.7821791519318042E-03
               1.7244937070886545E-03
               9.3663147719440960E-03
              -2.6881008279354742E-03
              -6.2765524824410076E-03
              -1.0823677489212228E-02
              -1.1445976945768542E-02
              -7.7682403317271493E-03
               1.9970926351397859E-02
               6.2065436752894590E-03
              -2.6577410158151711E-03
               5.8574184059287226E-03
              -1.3317792915028010E-05
               9.6751842366922926E-04
              -9.8700383864003000E-03
               3.6350878609723693E-03
               8.3369391021352289E-03
              -1.0146492260018248E-02
               3.4979766684430863E-03
              -2.9897788796614116E-03
               5.7141926961354035E-03
              -7.9739928635237677E-04
               2.1411275311645599E-03
               1.7980026379869941E-02
              -1.6345988044967894E-03
               1.8945298623769193E-03
               2.9459660756501972E-04
              -2.7778526424085005E-03
              -4.1589635781130660E-03
              -4.0784548791615166E-03
               3.7563405447267871E-03
               9.6110149297340079E-03
              -4.0162842028505022E-03
              -7.3207561152386184E-03
              -4.0821713702583681E-03
               4.4626280567060623E-03
               3.6940064993552005E-03
               4.5093621052463189E-04
               1.4749061276868533E-03
               5.2924257954092948E-03
               1.9802167796827513E-02
              -1.1416476004956258E-02
              -1.1722557693889640E-02
              -1.2334597893976966E-02
              -8.1590504401617733E-06
               1.1554657496871689E-03
               1.2711820791599165E-03
               2.6519710656067712E-03
              -1.3869853199154032E-04
              -3.8918117673511611E-03
              -1.3186834654722600E-02
               1.4880784051087970E-02
               9.7035899882776944E-03
              -8.4273568299894699E-03
              -6.7394924683442832E-03
               2.1558059281396695E-03
               6.2777432549781442E-03
              -2.3459787222125353E-03
              -1.5564517207414971E-02
               5.8929282257084150E-03
               4.0414494737265388E-03
              -5.1194540366899651E-03
               1.2661661551967077E-02
              -1.8496012727217622E-02
              -8.8886259375315409E-03
               4.4364740577675236E-03
               1.3635141086648949E-03
               2.4988043146855729E-04
              -1.1046479928781536E-02
               5.1910269639812035E-03
               5.3752195770706886E-03
               3.6781513750952692E-03
               7.0917528910055261E-03
              -1.5096796188980100E-03
              -7.0625159939014725E-03
              -3.0015256250712878E-03
               3.6268718571549814E-03
              -2.0324161550017142E-03
               1.5073599054085948E-02
               3.3901661110154191E-03
              -8.8852043653815556E-03
              -6.8303747029154153E-03
              -2.6803725706789861E-03
               3.7722368376708943E-04
               4.3089977877953708E-03
               2.4942402297946373E-03
              -1.7099313023188651E-03
               3.4520493605069346E-03
               1.0362488292063581E-02
               1.7748123785335614E-03
               3.5127596500941609E-04
              -1.7431237325261231E-04
               8.6989100456701610E-03
              -9.0928656731139104E-03
              -2.6387238168859605E-04
              -6.1511596873637460E-04
               4.5261416955588779E-03
               1.1633019071411158E-02
               2.1650671281420878E-03
              -7.6993059386119026E-03
               1.7435294648548047E-04
              -4.7320766296582387E-03
               1.8781522907305283E-03
              -2.7823114324145907E-03
               4.1238408691308941E-03
               3.1482794894467409E-03
               1.0342575186062606E-02
               4.5184431957813042E-04
              -3.7507300106279741E-03
               2.8827250133621599E-03
              -5.5055250093887192E-04
              -3.2152697112732844E-04
              -3.1409673584647163E-04
              -1.7827700434396520E-03
               1.0189566413907456E-02
              -3.4695425026534465E-04
              -1.1281306525681668E-03
               4.7809882713780814E-03
              -6.8882042830629223E-03
              -4.6485518556892440E-04
              -5.5510337941214287E-03
              -1.0610135289782510E-02
               3.2501976815983730E-03
               1.2631299891705935E-02
               1.6575280554127176E-02
               1.7229539124980989E-03
              -9.0246623739445798E-05
         &END THERMOSTAT_ENERGY
         &RNG_INIT
Wiener process for Thermostat # 1        1 F T T  -1.3877964172148927E+00        3819968671.0        1923139303.0        2505174482.0        1129753110.0        1102497896.0        2318485114.0             12345.0             12345.0             12345.0             12345.0             12345.0             12345.0             12345.0             12345.0             12345.0             12345.0             12345.0             12345.0
Wiener process for Thermostat # 2        1 F T T   5.9690975612399577E-01        1863048650.0        1167059563.0        4156553466.0        2659491592.0        2500563110.0        2967422577.0        3692455944.0        1366884236.0        2968912127.0         335948734.0        4161675175.0         475798818.0        3692455944.0        1366884236.0        2968912127.0         335948734.0        4161675175.0         475798818.0
Wiener process for Thermostat # 3        1 F T T  -1.9577134425325560E-01        2029679022.0        1992813296.0        1475024831.0        3744841000.0        4231717232.0        1872789393.0        1015873554.0        1310354410.0        2249465273.0         994084013.0        2912484720.0        3876682925.0        1015873554.0        1310354410.0        2249465273.0         994084013.0        2912484720.0        3876682925.0
Wiener process for Thermostat # 4        1 F T T  -5.5423907268054418E-01         972191078.0        3239779000.0        2283144792.0        4029872124.0        2868550739.0         388907277.0        2338701263.0        1119171942.0        2570676563.0         317077452.0        3194180850.0         618832124.0        2338701263.0        1119171942.0        2570676563.0         317077452.0        3194180850.0         618832124.0
Wiener process for Thermostat # 5        1 F T T  -3.6874052824979625E-01         246061856.0        2033992607.0        4208640487.0        3425480013.0        1713937449.0        3033523858.0        1597262096.0        3906379055.0        3312112953.0        1016013135.0        4099474108.0         275305423.0        1597262096.0        3906379055.0        3312112953.0        1016013135.0        4099474108.0         275305423.0
Wiener process for Thermostat # 6        1 F T T   5.7875332706651861E-01        4268450248.0        1240555256.0        2123119467.0         299173953.0        2368881629.0        2698044585.0          97147054.0        3131372450.0         829345164.0        3691032523.0        3006063034.0        4259826321.0          97147054.0        3131372450.0         829345164.0        3691032523.0        3006063034.0        4259826321.0
Wiener process for Thermostat # 7        1 F T T  -1.8983145396195047E+00        4260312323.0         705196258.0         937296972.0        1373994383.0        3179698350.0        3757299263.0         796079799.0        2105258207.0         955365076.0        2923159030.0        4116632677.0        3067683584.0         796079799.0        2105258207.0         955365076.0        2923159030.0        4116632677.0        3067683584.0
Wiener process for Thermostat # 8        1 F T T  -3.3116685260855833E-01        2351531572.0        3477839446.0        1021048571.0        1975906828.0        1893564842.0         777663015.0        3281794178.0        2616230133.0        1457051261.0        2762791137.0        2480527362.0        2282316169.0        3281794178.0        2616230133.0        1457051261.0        2762791137.0        2480527362.0        2282316169.0
Wiener process for Thermostat # 9        1 F T T   1.4386427466100791E+00        3265425123.0        2999969280.0        3048908474.0        1047403656.0         134736569.0        4209884843.0        3777646647.0        1837464056.0        4204654757.0         664239048.0        4190510072.0        2959195122.0        3777646647.0        1837464056.0        4204654757.0         664239048.0        4190510072.0        2959195122.0
Wiener process for Thermostat # 10       1 F T T  -2.3947144259907721E-01        2825100143.0        2025717467.0        3827127036.0        1422979577.0        1026966836.0        1481957392.0        4215590817.0        3862461878.0        1087200967.0        1544910132.0         936383720.0        1611370123.0        4215590817.0        3862461878.0        1087200967.0        1544910132.0         936383720.0        1611370123.0
Wiener process for Thermostat # 11       1 F T T   2.8146058156813852E-01        3161233422.0        2404453347.0        1673723662.0         906337025.0          73303549.0        1016746719.0        1683636369.0         362165168.0         814316280.0         869382050.0         980203903.0        2062101717.0        1683636369.0         362165168.0         814316280.0         869382050.0         980203903.0        2062101717.0
Wiener process for Thermostat # 12       1 F T T  -6.6211933450441895E-01         208754144.0        1983222026.0        1378772639.0         460703296.0         651350573.0        3898252829.0         272317999.0         166758548.0         310112982.0         201045826.0        1680231254.0         118290799.0         272317999.0         166758548.0         310112982.0         201045826.0        1680231254.0         118290799.0
Wiener process for Thermostat # 13       1 F T T   2.2418582236869027E-02         545702192.0         878923556.0         464381839.0        1267067492.0        3004786620.0        2258194530.0        2245755202.0        1652682525.0        2865544364.0         721509566.0         209733568.0         592362218.0        2245755202.0        1652682525.0        2865544364.0         721509566.0         209733568.0         592362218.0